Time F_xx F_xy F_xz F_yx F_yy F_yz F_zx F_zy F_zz sigma_xx sigma_yy sigma_zz sigma_xy sigma_yz sigma_zx meanLamellarSpacing mean_eq_strain_ferr mean_eq_strain_cem
0 1 0 0 0 1 0 0 0 1 0 0 0 0 0 0 80.17416899999998 0.0 0.0
0.199 1.00003641372082 -0.00028811631322215003 0.00011167176575037 0.00188592764938644 0.999973837277464 5.04754864432272e-05 -0.000806630005186073 5.75589087279985e-05 1.00009229687819 17555329.624171387 7921085.057385914 26110165.932902064 122909214.27599448 8293023.6833308805 8293023.6833308805 80.17555815554992 0.0 0.0
0.398 1.00004286235164 -0.00028210887273530003 0.00010994018011174 0.00193017306970288 0.9999794649449281 4.52484625216544e-05 -0.000826510872595146 5.177812927129701e-05 1.00008776043638 19410180.22338606 9663829.680414949 26283888.33845332 126773920.82687147 7443451.258973479 7443451.258973479 80.17573644970176 0.0 0.0
0.597 1.00004931098246 -0.00027610143224845 0.00010820859447311 0.00197441849001932 0.999985092612392 4.00214386000816e-05 -0.000846391740004219 4.5997349814595504e-05 1.00008322399457 21264717.752120133 11406581.89773865 26457538.840681754 130638566.30274019 6593830.790341012 6593830.790341012 80.17591447638816 0.0 0.0
0.796 1.00005575961328 -0.0002700939917616 0.00010647700883448 0.00201866391033576 0.999990720279856 3.4794414678508795e-05 -0.000866272607413292 4.021657035789401e-05 1.00007868755276 23118942.202561498 13149341.723647391 26631117.44672023 134503150.7181772 5744162.268515164 5744162.268515164 80.17609233120895 0.0 0.0
0.9950000000000001 1.0000622082441 -0.00026408655127475 0.00010474542319585 0.0020629093306522 0.9999963479473201 2.9567390756935998e-05 -0.000886153474822365 3.44357909011925e-05 1.00007415111095 24972853.577542398 14892109.16402919 26804624.161313016 138367674.0774194 4894445.690815182 4894445.690815182 80.17627006012012 0.0 0.0
1.1940000000000002 1.00007332205306 -0.0002575544280588 0.0001021034453867214 0.00203379164888476 0.999980961643812 4.725738164808161e-05 -0.0008737279019715 5.445821458327322e-05 1.00009430726462 28515504.769368444 14348021.53607192 31733512.071120836 136634163.1154598 7797886.036626333 7797886.036626333 80.17668680146619 0.0 0.0
1.3930000000000002 1.00008455609857 -0.0002510087820921 9.94380038618583e-05 0.00200278316551722 0.999965033743114 6.553801725089522e-05 -0.00086046968890775 7.514566927408544e-05 1.00011509982539 32101498.944868233 13744865.874273198 36784736.669791505 134756249.87263912 10797998.240353325 10797998.240353325 80.17710992185651 0.0 0.0
1.5920000000000003 1.00009579014408 -0.0002444631361254 9.67725623369952e-05 0.00197177468214968 0.999949105842416 8.381865285370883e-05 -0.000847211475844 9.583312396489763e-05 1.00013589238616 35687299.04747253 13141585.46390197 41835733.87262544 132878208.39855452 13798047.64198334 13798047.64198334 80.17753310314602 0.0 0.0
1.7910000000000004 1.00010702418959 -0.00023791749015869998 9.41071208121321e-05 0.0019407661987821399 0.999933177941718 0.00010209928845652243 -0.00083395326278025 0.00011652057865570984 1.0001566849469299 39272905.23820517 12538180.176244475 46886503.668572865 131000038.70132267 16798034.287939217 16798034.287939217 80.17795626239743 0.0 0.0
1.9900000000000004 1.0001182582351 -0.000231371844192 9.144167928726899e-05 0.0019097577154146 0.99991725004102 0.00012037992405933603 -0.0008206950497165 0.00013720803334652204 1.0001774775077 42858317.59160366 11934649.957882665 51937046.05784753 129121740.78341791 19797958.199343394 19797958.199343394 80.17837935973301 0.0 0.0
2.1890000000000005 1.00012363466409 1.8298460972616286e-06 -1.2036814857667173e-05 0.0018071288154422598 0.9999188085191689 0.00011222730674766857 -0.0007776801554500959 0.0001282536315952853 1.0001643083466198 42877952.60361705 11349266.327541413 49122799.87842619 139161853.7544894 18502097.893207025 18502097.893207025 80.17812350599799 0.0 0.0
2.3880000000000003 1.00012870116628 0.0002470239196840124 -0.00012084933295075499 0.0017007104754379197 0.999921292202548 0.00010267610462571118 -0.0007330908336068319 0.00011773087765134759 1.00014934226904 42724789.27936771 10772080.836790584 45899288.533208594 149832463.89315203 16978864.579298433 16978864.579298433 80.17783235653738 0.0 0.0
2.587 1.00013376766847 0.0004922179932707633 -0.00022966185104384283 0.00159429213543358 0.999923775885927 9.312490250375379e-05 -0.0006885015117635679 0.0001072081237074099 1.0001343761914598 42588018.869839296 10202213.786907798 42682787.886371516 160502982.9306167 15455590.430585949 15455590.430585949 80.17754209835655 0.0 0.0
2.786 1.00013883417066 0.0007374120668575141 -0.0003384743691369306 0.0014878737954292399 0.9999262595693059 8.35737003817964e-05 -0.0006439121899203039 9.66853697634722e-05 1.00011941011388 42467640.574665345 9639665.112491662 39473297.7113034 171173408.6648087 13932275.38657702 13932275.38657702 80.17725287495497 0.0 0.0
2.985 1.00014390067285 0.000982606140444265 -0.0004472868872300185 0.0013814554554249 0.999928743252685 7.4022498259839e-05 -0.0005993228680770399 8.61626158195345e-05 1.0001044440362998 42363653.68057023 9084434.667564448 36270817.768697 181843738.8387111 12408919.421230061 12408919.421230061 80.17696475523793 0.0 0.0
3.1839999999999997 1.00012798023624 0.00101198138549456 -0.000457583574618408 0.001251136797325008 0.99991694529656 6.341367944099602e-05 -0.000543207531138384 7.949548139728161e-05 1.00008127350636 34083253.1569848 1402018.6060905813 26846926.9672603 174079567.24627203 11083465.613241624 11083465.613241624 80.17570895431083 0.0 0.0
3.3829999999999996 1.00011034890788 0.00102376270430547 -0.000459849080155871 0.0011188697437281962 0.999903983076345 5.2718641869689526e-05 -0.0004861525734039081 7.314266378386172e-05 1.0000574341351949 25134337.57667975 -6859862.091174933 16915971.44286353 164812434.50428492 9773421.425275033 9773421.425275033 80.17437539449406 0.0 0.0
3.5819999999999994 1.00009271757952 0.00103554402311638 -0.00046211458569333396 0.0009866026901313844 0.99989102085613 4.2023604298383036e-05 -0.00042909761566943213 6.678984617044182e-05 1.00003359476403 16184333.716376008 -15119957.426949723 6985418.774340271 155545138.7503893 8462700.883922622 8462700.883922622 80.17304238341491 0.0 0.0
3.7809999999999993 1.00007508625116 0.00104732534192729 -0.000464380091230797 0.0008543356365345725 0.999878058635915 3.1328566727076545e-05 -0.0003720426579349562 6.0437028557021925e-05 1.000009755392865 7233241.687792124 -23378267.41636163 -2944731.03280144 146277680.43574777 7151304.036684895 7151304.036684895 80.17170950696523 0.0 0.0
3.979999999999999 1.0000574549228 0.0010591066607382 -0.00046664559676826 0.0007220685829377605 0.9998650964157 2.0633529155770054e-05 -0.00031498770020048025 5.408421094360203e-05 0.9999859160217001 -1718938.5037111903 -31634791.985754825 -12874477.95512983 137010059.92562452 5839230.881182661 5839230.881182661 80.170376566058 0.0 0.0
4.178999999999999 1.00007074969294 0.001622728966336198 -0.0007089148882024362 0.00012531463009410402 0.99984849309831 1.0020856206970641e-06 -5.793620587868489e-05 2.51089347876107e-05 0.999922730955348 -7124287.211541666 -41821192.00265022 -30198364.023880243 134451067.58545113 2115719.4802523125 2115719.4802523125 80.16875666495122 0.0 0.0
4.377999999999999 1.00008749989308 0.0022480094827483973 -0.0009780002450999329 -0.0005233373003190334 0.99983148295442 -1.962783902764592e-05 0.00022146127018471087 -6.393990367550675e-06 0.999855149721936 -11961514.246046092 -52056944.48020466 -48233005.41779387 132639368.35014704 -1904202.107792028 -1904202.107792028 80.16712901477283 0.0 0.0
4.576999999999999 1.00010425009322 0.002873289999160597 -0.0012470856019974298 -0.0011719892307321708 0.9998144728105299 -4.0257763675988906e-05 0.0005008587462481066 -3.789691552271205e-05 0.999787568488524 -16617366.136513533 -62117960.31599995 -66146200.1967887 130825131.20292416 -5952373.420996173 -5952373.420996173 80.16552712699979 0.0 0.0
4.775999999999999 1.00012100029336 0.0034985705155727966 -0.0015161709588949266 -0.0018206411611453085 0.9997974626666399 -6.088768832433189e-05 0.0007802562223115025 -6.939984067787343e-05 0.999719987255112 -21091855.525995206 -72004242.30698766 -83937952.66647312 129008361.43149522 -10028795.310332352 -10028795.310332352 80.1639511157438 0.0 0.0
4.974999999999999 1.0001377504935 0.004123851031984996 -0.0017852563157924233 -0.0024692930915584457 0.9997804525227499 -8.151761297267487e-05 0.0010596536983748983 -0.0001009027658330348 0.9996524060217 -25384995.643619638 -81715793.70454928 -101608267.47755632 127189064.34087117 -14133468.561556203 -14133468.561556203 80.16240103278193 0.0 0.0
5.173999999999999 1.00017078490124 0.004108148972647061 -0.0017638044500987206 -0.002815888004394618 0.999621127313758 -0.00016474693369091995 0.001204097040796799 -0.00018160246541634538 0.999348597784074 -69731030.07129072 -155525355.58781368 -197806164.27121413 99280406.24775787 -26829661.8694695 -26829661.8694695 80.1517206252124 0.0 0.0
5.372999999999998 1.0002061589939801 0.004000351715643871 -0.0017006087305844405 -0.0031190839204524876 0.9994413545379409 -0.000256970420511163 0.001329150421488599 -0.0002693706670726663 0.999010848884923 -119888060.47589971 -238587512.74449375 -305340806.5416627 67616896.03569299 -40765344.78328078 -40765344.78328078 80.13971772525613 0.0 0.0
5.571999999999998 1.00024153308672 0.003892554458640681 -0.0016374130110701605 -0.0034222798365103574 0.999261581762124 -0.00034919390733140606 0.001454203802180399 -0.00035713886872898725 0.998673099985772 -170086898.5056141 -321682753.38734096 -412923132.49643946 35947193.98876177 -54707885.40423148 -54707885.40423148 80.12770443952441 0.0 0.0
5.770999999999998 1.0002769071794602 0.003784757201637491 -0.0015742172915558807 -0.003725475752568227 0.9990818089863069 -0.0004414173941516491 0.0015792571828721989 -0.0004449070703853082 0.998335351086621 -220327566.6971833 -404811096.56199676 -520553170.03200364 4271300.099939911 -68657287.45303543 -68657287.45303543 80.1156799969781 0.0 0.0
5.969999999999998 1.0003122812722 0.003676959944634301 -0.0015110215720416007 -0.0040286716686260965 0.99890203621049 -0.0005336408809718921 0.0017043105635639987 -0.0005326752720416292 0.99799760218747 -270610088.351017 -487972560.37815285 -628230947.2985014 -27410786.452808276 -82613555.14096284 -82613555.14096284 80.10364402741112 0.0 0.0
6.168999999999998 1.00077173122065 0.00445544280923005 -0.001807318681691486 -0.007489544340624125 0.998548611326212 -0.0004435530662745507 0.003199582911378891 -0.0005026502769315896 0.997730925263358 -232148808.56773502 -552102054.6450888 -672608340.4179015 -220788335.77635577 -69690897.03135954 -69690897.03135954 80.10258808555994 0.00011317999963734582 0.0
6.367999999999998 1.0013064609068 0.005391253506062309 -0.0021674310864592755 -0.011510951347996193 0.998164360623864 -0.00032110229864509105 0.0049380893953695 -0.0004517152468926086 0.997476864666176 -270103550.08587223 -573192132.6944883 -649424899.6557853 -307592579.53957677 -42021205.59880553 -42021205.59880553 80.10722844795707 0.0012496287994690455 0.0
6.5669999999999975 1.00184119059295 0.006327064202894569 -0.0025275434912270653 -0.015532358355368259 0.997780109921516 -0.00019865153101563147 0.0066765958793601095 -0.00040078021685362766 0.997222804068994 -302965382.7432595 -589115883.2279109 -632368986.1885602 -356904549.89331424 -22428711.550590716 -22428711.550590716 80.10823913859385 0.0027391131238718265 0.0
6.765999999999997 1.0023759202791 0.007262874899726828 -0.002887655895994855 -0.019553765362740328 0.9973958592191681 -7.620076338617183e-05 0.008415102363350718 -0.00034984518681464665 0.996968743471812 -328830906.63139415 -600689474.4488847 -622531045.2290227 -384703479.60170937 -9745627.94418764 -9745627.94418764 80.10843501177061 0.004401566861731379 0.0
6.964999999999997 1.00291064996525 0.008198685596559088 -0.0032477683007626447 -0.023575172370112394 0.99701160851682 4.6250004243287754e-05 0.010153608847341325 -0.0002989101567756657 0.9967146828746299 -346397100.60112196 -610713437.669212 -618414214.959756 -405756439.03543895 -1619643.4127830109 -1619643.4127830109 80.1088280060255 0.006127454861070615 0.0
7.163999999999997 1.0075745282701198 0.007655908669511413 -0.003028379082298765 -0.030094188341082694 0.9942936983811481 0.00048786829487742724 0.012988655355655555 1.6709048946622477e-05 0.994547209272696 -227182995.7109956 -740780087.6943375 -719715812.9979597 -381792777.3425509 17150854.15638293 17150854.15638293 80.12169098242184 0.011644574225215872 0.0
7.362999999999997 1.01311962731679 0.006797579505660064 -0.002685315736925675 -0.03714623061525999 0.991077751171291 0.000997601605665011 0.01605771955208765 0.00038881573118669516 0.991971385334382 -192632412.45265937 -844471643.2317392 -810513343.013653 -380581711.4968084 27401038.478258442 27401038.478258442 80.13006534391845 0.018387631784515582 0.0003801958417595848
7.561999999999997 1.0186647263634598 0.005939250341808714 -0.0023422523915525855 -0.044198272889437284 0.9878618039614341 0.0015073349164525952 0.019126783748519748 0.0007609224134267679 0.989395561396068 -212106034.6986124 -932690955.2920368 -893667745.6567471 -386767546.33005786 31797928.146111257 31797928.146111257 80.13121227247636 0.025301095589588922 0.002206815979900418
7.760999999999997 1.02420982541013 0.0050809211779573645 -0.001999189046179496 -0.051250315163614585 0.984645856751577 0.002017068227240179 0.022195847944951847 0.0011330290956668406 0.9868197374577541 -262030305.33266112 -1018844860.4377301 -979211474.9644848 -391302873.456499 32940614.559005313 32940614.559005313 80.12648184660222 0.03229541615842555 0.0053409964860909225
7.959999999999996 1.0297549244567998 0.004222592014106016 -0.0016561257008064062 -0.05830235743779187 0.98142990954172 0.0025268015380277625 0.025264912141383947 0.0015051357779069133 0.9842439135194401 -331320648.5762984 -1109842085.7956483 -1071189872.017986 -394650200.5245645 33242991.896005034 33242991.896005034 80.11647346251394 0.0393455326460512 0.00919885750946665
8.158999999999997 1.03705488980847 0.0040423138452361 -0.001698226493682278 -0.06193964803788046 0.9781212204940221 0.0024867425930748324 0.02688957664159508 0.0013981822272699943 0.9807002800652671 -215811957.41226643 -1124325201.9182715 -1128673124.345121 -299554126.8866077 9638132.88847966 9638132.88847966 80.11964592977111 0.04623911325357313 0.012963683148152412
8.357999999999997 1.0447963309601398 0.004032614543028201 -0.001837223925111358 -0.06471788161304096 0.9747892001663641 0.0023083711309544626 0.02815087014904618 0.0011707103790539455 0.9769131725190541 -136266994.80346304 -1107552696.5526638 -1139408579.4562383 -231463971.66482544 -4588667.084718656 -4588667.084718656 80.12033680404038 0.05348039271940123 0.01703973564613031
8.556999999999997 1.0525377721118099 0.0040229152408203005 -0.0019762213565404376 -0.06749611518820146 0.971457179838706 0.0021299996688340928 0.029412163656497278 0.0009432385308378965 0.973126064972841 -97070321.30069901 -1099004207.200638 -1142405292.0118823 -202035179.76456827 -10095153.782456696 -10095153.782456696 80.1151003433161 0.06079952236779987 0.021388297086063848
8.755999999999997 1.06027921326348 0.0040132159386124 -0.0021152187879695176 -0.07027434876336196 0.968125159511048 0.001951628206713723 0.030673457163948377 0.0007157666826218478 0.969338957426628 -79938399.29526123 -1102579727.453521 -1151746751.4459229 -187021939.012818 -12694523.856951533 -12694523.856951533 80.10450986500771 0.0681424047135906 0.025927842467285963
8.954999999999997 1.06802065441515 0.004003516636404501 -0.0022542162193985972 -0.07305258233852245 0.96479313918339 0.001773256744593353 0.031934750671399476 0.000488294834405799 0.965551849880415 -80331095.85465074 -1118760151.0566137 -1171194987.7993624 -177950515.29672465 -14185198.392582955 -14185198.392582955 80.08899944962187 0.07549715640695155 0.030631875822790814
9.153999999999996 1.0748218782949799 0.002864139553873227 -0.0017564667202540924 -0.07299020452166462 0.9624017472598321 0.0012015770558062525 0.031901044251198406 -0.00013224551686639264 0.961965202822738 -57276159.271879666 -1095119669.9664414 -1194266277.7776618 -139730505.792537 -39193810.08041738 -39193810.08041738 80.07515141887151 0.08172611632030696 0.03448306391823514
9.352999999999996 1.0813483633616099 0.0013946618212474283 -0.001072654806331573 -0.07209777792142472 0.960285214285524 0.0005149696384476933 0.03148892876122881 -0.0008676435476030532 0.958437131881841 -40573937.69848004 -1073322281.2748353 -1207686466.821465 -109990936.00971235 -58091786.39107948 -58091786.39107948 80.05945827204907 0.08768725551950496 0.03822462291047851
9.551999999999996 1.08787484842824 -7.481591137837012e-05 -0.0003888428924090537 -0.07120535132118483 0.958168681311216 -0.00017163777891086624 0.031076813271259208 -0.0016030415783397137 0.9549090609409441 -35125605.38900341 -1068077510.4576601 -1219269280.0464318 -94653030.01692116 -67133920.21536736 -67133920.21536736 80.04054173543814 0.09366500327821427 0.042072419476037605
9.750999999999996 1.09440133349487 -0.001544293644004169 0.0002949690215134659 -0.07031292472094493 0.956052148336908 -0.0008582451962694257 0.030664697781289607 -0.002338439609076374 0.951380990000047 -39233275.81118418 -1074643884.5523179 -1235330578.0114043 -85591989.82393064 -72325338.61452352 -72325338.61452352 80.01872510569649 0.09964815917240179 0.04599656597399436
9.949999999999996 1.1009278185615 -0.003013771376629968 0.0009787809354359855 -0.06942049812070503 0.9539356153626001 -0.001544852613627985 0.03025258229132001 -0.0030738376398130344 0.94785291905915 -52547367.27703077 -1091014463.4318812 -1258108925.0897586 -79527656.66526406 -75878063.82702367 -75878063.82702367 79.99410464177964 0.105634923432407 0.04997311129398511
10.148999999999996 1.1093168838527099 -0.00574247128891157 0.002201851991164309 -0.06459999642881344 0.950551336515256 -0.0015528155988270848 0.028108358799479063 -0.003134168458022434 0.944344681625069 -11842069.29332604 -1115304908.5166187 -1202437681.3692186 -9647366.60784646 -33243300.073129278 -33243300.073129278 79.97620804457432 0.1129101068097176 0.05488039686862779
10.347999999999995 1.1183309760649198 -0.008893728979601207 0.0036058824904516484 -0.058461348733011745 0.9467416395897121 -0.001333045553100165 0.025382891011708063 -0.002967966654578364 0.940843099730188 24035498.32950622 -1111200436.0537655 -1145307730.6526556 38093151.172143266 -5062309.568016134 -5062309.568016134 79.9567286589556 0.12079793673571061 0.06019416927544573
10.546999999999995 1.1273450682771298 -0.012044986670290844 0.005009912989738987 -0.05232270103721005 0.9429319426641681 -0.0011132755073732451 0.022657423223937066 -0.002801764851134294 0.9373415178353071 50623475.106374376 -1098686438.8438313 -1112477362.4291937 60163808.35971837 5530829.167239291 5530829.167239291 79.93244098354245 0.12871360939067467 0.06556402648987147
10.745999999999995 1.1363591604893397 -0.015196244360980481 0.0064139434890263265 -0.04618405334140835 0.9391222457386241 -0.0008935054616463253 0.019931955436166066 -0.0026355630476902242 0.933839935940426 69179883.14899036 -1089039456.5744789 -1093791737.392981 72558370.73282926 9970763.41487393 9970763.41487393 79.90349988911194 0.13663313401977864 0.0709962339802506
10.944999999999995 1.1453732527015497 -0.01834750205167012 0.007817973988313666 -0.04004540564560666 0.9353125488130801 -0.0006737354159194054 0.017206487648395066 -0.0024693612442461543 0.930338354045545 79408567.50076917 -1085498384.5916476 -1085583712.5121808 80725581.23830244 12033259.215378193 12033259.215378193 79.87007290219523 0.14455379447850533 0.07647347456268562
11.143999999999995 1.1503753145932798 -0.020266334548202362 0.008622568052918306 -0.033659641713763525 0.9333142749205281 -0.0003883775995902802 0.014432096025704232 -0.0022184846302158476 0.928810867521096 161805674.34504172 -977634170.1732224 -958196047.972968 170869227.5680264 22529512.252323885 22529512.252323885 79.86821525023998 0.14915541113820344 0.07920316746899285
11.342999999999995 1.1538450037931598 -0.02171444908863276 0.009198210701498274 -0.027179493108432345 0.932007863991966 -7.796889865614243e-05 0.011639018216064844 -0.0019352669426977377 0.9280373757561869 257017197.56712332 -815048335.0147715 -775847810.1748356 265599385.215959 32882487.40324197 32882487.40324197 79.87837055515743 0.1527910993017854 0.08120899207050615
11.541999999999994 1.1573146929930398 -0.02316256362906316 0.009773853350078245 -0.02069934450310116 0.930701453063404 0.00023243980227799531 0.008845940406425458 -0.001652049255179628 0.927263883991278 369128412.1392087 -653931431.7418019 -604811318.7998389 315784379.7707731 38019458.80981537 38019458.80981537 79.88683712205703 0.15654119154568624 0.08339125116731136
11.740999999999994 1.1607843821929198 -0.02461067816949356 0.010349495998658214 -0.014219195897769977 0.929395042134842 0.000542848503212133 0.006052862596786069 -0.001368831567661518 0.926490392226369 496639667.2757884 -496077779.7041132 -441815554.0119568 345238628.3288661 40725930.6114019 40725930.6114019 79.89430581799913 0.16031724744335804 0.08566763984416234
11.939999999999994 1.1642540713927998 -0.026058792709923957 0.010925138647238182 -0.007739047292438791 0.92808863120628 0.0008532572041462708 0.003259784787146683 -0.0010856138801434083 0.9257169004614599 634049601.6198447 -339915838.71649754 -282957235.4574903 364292271.1903984 42204986.108439006 42204986.108439006 79.90110795404806 0.16409775285802544 0.08802150394208214
12.138999999999994 1.16521159287751 -0.02767496852945995 0.011595202153911079 -0.005041569536690028 0.9276525295255079 0.0009384728566883823 0.0021040545411048404 -0.0010115968234054795 0.925431724194038 672659598.4654247 -331546391.99055046 -274064755.54240316 349821237.1798242 42584479.18111021 42584479.18111021 79.89893508865828 0.16494721441875757 0.08843551653314163
12.337999999999994 1.16508472542042 -0.02936368878601995 0.012306022865516178 -0.003976899341912323 0.9275921009013359 0.0009264828768310444 0.0016550930275512478 -0.0010278821972201594 0.925357331594596 627041020.1272489 -362834018.05438524 -311984240.0730643 281183992.5308558 38029996.6410701 38029996.6410701 79.893096801361 0.16494721441875757 0.08843551653314163
12.536999999999994 1.16495785796333 -0.031052409042579946 0.013016843577121278 -0.002912229147134619 0.9275316722771639 0.0009144928969737064 0.0012061315139976552 -0.0010441675710348396 0.925282938995154 582386062.530879 -393594119.28549725 -349441065.7897133 212516313.1696214 33443967.108005565 33443967.108005565 79.88734489516636 0.16494721441875757 0.08843551653314163
12.735999999999994 1.16483099050624 -0.03274112929913994 0.013727664288726377 -0.0018475589523569147 0.9274712436529919 0.0009025029171163683 0.0007571700004440625 -0.0010604529448495195 0.925208546395712 538692663.9717968 -423825723.0090282 -386434698.92907095 143819178.29154858 28827316.307215262 28827316.307215262 79.88168615039328 0.16494721441875757 0.0884356609796989
12.934999999999993 1.16470412304915 -0.03442984955569994 0.014438485000331477 -0.000782888757579211 0.92741081502882 0.0008905129372590304 0.00030820848689047014 -0.0010767383186641995 0.9251341537962701 495930464.72320175 -453511627.5035677 -422951329.5614696 75098156.91778497 24186959.333212573 24186959.333212573 79.87612005701713 0.16494721441875757 0.08843788863003693
13.133999999999993 1.16468522151596 -0.035278922414247786 0.014788698150051195 -0.00027521576518332007 0.927472281532604 0.0007792074283763988 0.00010061013216754107 -0.0011654170811034358 0.925079397716154 494310270.43725353 -439611025.9314546 -430475176.0939944 38819745.451879315 6495571.828164559 6495571.828164559 79.87664816734126 0.16494721441875757 0.08843984298089398
13.332999999999993 1.16471869151302 -0.035720703624506085 0.014963989721244395 -3.772798289805227e-05 0.927592876270098 0.0006197264763098489 1.0090921653534152e-05 -0.0012892120395172756 0.9250341668133231 512358040.84614897 -404711089.480546 -424067702.3942469 18282960.85868455 -17522391.286292307 -17522391.286292307 79.88010470324295 0.16494721441875757 0.08844180756237117
13.531999999999993 1.16475216151008 -0.036162484834764384 0.015139281292437594 0.00019975979938721558 0.927713471007592 0.00046024552424329886 -8.04282888604728e-05 -0.0014130069979311154 0.924988935910492 530438123.6991199 -369790285.6977915 -417637022.07729226 -2253232.734735047 -41534111.81319791 -41534111.81319791 79.88356366351717 0.16494721441875757 0.08844489574624355
13.730999999999993 1.16478563150714 -0.03660426604502268 0.015314572863630794 0.0004372475816724834 0.927834065745086 0.00030076457217674893 -0.00017094749937447972 -0.0015368019563449554 0.924943705007661 548534889.6912445 -334842162.4322398 -411174087.6519395 -22781903.025968473 -65527864.43175172 -65527864.43175172 79.88702664976901 0.16494721441875757 0.0884503379448236
13.929999999999993 1.1648191015042 -0.03704604725528098 0.015489864434823994 0.0006747353639577513 0.92795466048258 0.00014128362011019894 -0.00026146670988848666 -0.0016605969147587953 0.92489847410483 566669272.4770484 -299876079.2095414 -404690445.12485665 -43309464.331687994 -89512963.23478991 -89512963.23478991 79.89049236929638 0.16494721441875757 0.08845669048442964
14.128999999999992 1.1647587243289201 -0.03781865791564956 0.015828615958216784 0.0010824285677543581 0.928034719998865 8.198386962007428e-05 -0.0004375926235655216 -0.0017102049436293195 0.924915974550853 566953308.8400728 -276324414.94098735 -393201940.54007286 -80060526.86516993 -99429176.98498318 -99429176.98498318 79.8928511775841 0.16494721441875757 0.08846086810076527
14.327999999999992 1.16464742233144 -0.03877078843266716 0.016256066680477584 0.0015824813026036446 0.92809278365868 7.704601145825139e-05 -0.0006601717870209514 -0.0017195564991042396 0.924967515263696 557543977.0585136 -258747824.38110545 -378810695.9048343 -125486686.73748678 -101637575.87119849 -101637575.87119849 79.894637589697 0.16494912389260444 0.08846412316846529
14.526999999999992 1.16453612033396 -0.03972291894968476 0.016683517402738383 0.0020825340374529314 0.9281508473184951 7.21081532964285e-05 -0.0008827509504763813 -0.0017289080545791597 0.925019055976539 547451982.4665138 -240605666.9113631 -363787296.86103433 -170161599.619841 -103541959.45225081 -103541959.45225081 79.89648975391934 0.1649608863150352 0.0884674624370157
14.725999999999992 1.16442481833648 -0.04067504946670236 0.017110968124999182 0.002582586772302218 0.92820891097831 6.71702951346056e-05 -0.001105330113931811 -0.0017382596100540795 0.925070596689382 536359925.0951789 -221850515.26112384 -347862402.66096556 -213549942.47742677 -104955830.14578548 -104955830.14578548 79.89835135993395 0.16498780283089304 0.08847108779033938
14.924999999999992 1.164313516339 -0.04162717998371996 0.01753841884725998 0.0030826395071515043 0.928266974638125 6.22324369727827e-05 -0.001327909277387241 -0.0017476111655289996 0.925122137402225 523165312.20346665 -202177680.67077345 -330236702.37206566 -254172267.8080276 -105554412.42819254 -105554412.42819254 79.90030676862244 0.16504532898638163 0.08847500336165964
15.123999999999992 1.16468950694992 -0.0419993089928776 0.017708082696329997 0.0036844368786359723 0.92798229287518 0.00023816309354217607 -0.001589535382530388 -0.0015455671193426502 0.925188274130144 584672544.8239319 -231325832.53490025 -304162715.1904395 -241899166.31697014 -75253048.8750867 -75253048.8750867 79.90168094689996 0.16506644892666794 0.08848510915392696
15.322999999999992 1.16536023099334 -0.042020630638410196 0.017721827065647497 0.004347773344859472 0.927490305412985 0.0005234900291828888 -0.0018747785895007877 -0.0012156628302159944 0.925263239092988 686060980.9858807 -287574203.0444221 -270662303.66906154 -194233531.39793167 -25491424.882387277 -25491424.882387277 79.90276673816162 0.16511168950968455 0.08851346554202968
15.521999999999991 1.16603095503676 -0.0420419522839428 0.017735571434965 0.005011109811082971 0.92699831795079 0.0008088169648236016 -0.0021600217964711874 -0.0008857585410893385 0.925338204055832 770411727.7776443 -332668220.0358666 -231726241.28890023 -140309775.56502992 23183529.425096367 23183529.425096367 79.90434619992162 0.16528755590359734 0.08856846052324252
15.720999999999991 1.1667016790801799 -0.0420632739294754 0.0177493158042825 0.005674446277306471 0.926506330488595 0.0010941439004643143 -0.0024452650034415876 -0.0005558542519626826 0.925413169018676 829742987.3130194 -359344386.6002786 -186646876.99077606 -82830114.63062072 67078752.413789555 67078752.413789555 79.90566627119927 0.16564396965936867 0.0886732456395841
15.919999999999991 1.1673724031236 -0.042084595575008 0.0177630601736 0.00633778274352997 0.9260143430264001 0.0013794708361050273 -0.002730508210411987 -0.00022594996283602686 0.9254881339815201 866635121.866804 -367432811.29274493 -138154638.17780396 -27640475.774815973 103174597.25495392 103174597.25495392 79.90659566137376 0.16615792440074237 0.08887437162375791
16.118999999999993 1.1673615826522499 -0.042003248301149106 0.0177268460771694 0.006480208956828907 0.925827278532639 0.0016202597792101424 -0.0027726625466000243 1.4004598369545289e-05 0.925716732731258 856904029.8600839 -381554884.65023553 -93820108.74260925 -9912495.093942044 138593645.50620103 138593645.50620103 79.90732298036264 0.1662609524663564 0.08890489162892547
16.317999999999994 1.1668925809944999 -0.0418528799050102 0.0176570464575468 0.006272443403455806 0.925845204269758 0.001831107214728294 -0.002651395793186443 0.00019348875425000665 0.926048614699076 790835966.7871238 -383882133.873546 -43124798.79101631 -12694309.953267993 171637595.03292623 171637595.03292623 79.9081850938909 0.1662609524663564 0.08890495043731254
16.516999999999996 1.16642357933675 -0.041702511508871304 0.017587246837924203 0.006064677850082704 0.925863130006877 0.0020419546502464456 -0.0025301290397728624 0.00037297291013046807 0.9263804966668939 724710007.436998 -386244551.4388658 7507561.938641281 -15470641.698947318 204666738.72287884 204666738.72287884 79.90898612715087 0.1662609524663564 0.08890511485212345
16.715999999999998 1.1659545776790001 -0.0415521431127324 0.0175174472183016 0.005856912296709602 0.925881055743996 0.0022528020857645976 -0.0024088622863592812 0.0005524570660109294 0.926712378634712 658407053.8883733 -388460351.866533 58012924.145073764 -18207846.34801634 237500095.31642187 237500095.31642187 79.90976408162634 0.16626278997248845 0.08890542513136232
16.915 1.1654855760212501 -0.0414017747165935 0.017447647598679002 0.005649146743336501 0.925898981481115 0.0024636495212827492 -0.0022875955329457005 0.0007319412218913907 0.92704426060253 591714201.0878724 -389983018.1654782 108050627.3717624 -20815647.62286603 269695199.91800827 269695199.91800827 79.91044880990118 0.16627183095227835 0.08890588209991977
17.114 1.16542743309608 -0.040988450074277 0.0172601170960176 0.005249482044112198 0.925806801992438 0.0026135359229833804 -0.002110221652697619 0.0008614445880057844 0.927197185067678 580671239.6968414 -403453550.9860305 129759753.97921477 -12812303.959504748 290192413.1165437 290192413.1165437 79.91024436125079 0.1663163070969469 0.0889090612544288
17.313000000000002 1.16567563220836 -0.04037906156419649 0.016984804794599198 0.004706734648419893 0.9256325265020711 0.0027179689222762114 -0.0018910135112132874 0.0009536815757858291 0.927216676307151 607195726.2165117 -419830397.89291674 128584155.17546412 3281761.0894132066 298228057.02689844 298228057.02689844 79.90921775221538 0.16643777046453248 0.08892196492932791
17.512000000000004 1.16592383132064 -0.03976967305411599 0.016709492493180794 0.004163987252727589 0.925458251011704 0.002822401921569042 -0.0016718053697289555 0.001045918563565874 0.927236167546624 627801895.913174 -428087508.2123896 125494702.16262141 19308361.599361636 300759390.48428386 300759390.48428386 79.90789800683223 0.16663173898645467 0.08894012307109375
17.711000000000006 1.16617203043292 -0.03916028454403548 0.016434180191762394 0.003621239857035285 0.925283975521337 0.002926834920861873 -0.0014525972282446239 0.0011381555513459186 0.927255658786097 645209617.754398 -432609861.6814364 122175195.21739605 34684968.94750039 301167583.1463766 301167583.1463766 79.90643401623534 0.16685711250916907 0.08896467455073882
17.910000000000007 1.1664202295452 -0.03855089603395497 0.01615886789034399 0.0030784924613429803 0.92510970003097 0.003031267920154704 -0.001233389086760292 0.0012303925391259633 0.92727515002557 659931290.6433353 -434362095.02493316 119082425.73364353 49287645.836247995 300096092.00996864 300096092.00996864 79.9050491882474 0.16710614480122798 0.0890010650475277
18.10900000000001 1.1663136180116198 -0.03805529156941938 0.015951598514127394 0.002721163490106791 0.92512271792966 0.0030610201893763087 -0.0011044105087135696 0.0012521197846843484 0.92737287938129 646135542.1407412 -431310642.558427 135705842.3704078 65999120.10020544 304102195.1529843 304102195.1529843 79.90586355975566 0.16711946848344325 0.08900354518416331
18.30800000000001 1.16591404355944 -0.037653637234232776 0.015800511369728792 0.0025169323005315896 0.92529038174592 0.0030291094704657183 -0.0010499334050648613 0.0012156279770321981 0.92753520901648 593830193.4525273 -404022900.20569384 163061306.3803383 84494950.15281592 298756958.2981641 298756958.2981641 79.90797847064856 0.16711946848344325 0.08900354518416331
18.507000000000012 1.1655144691072599 -0.037251982899046174 0.01564942422533019 0.0023127011109563876 0.92545804556218 0.002997198751555128 -0.0009954563014161527 0.0011791361693800479 0.92769753865167 541529302.43748 -376740900.5191394 190409468.45590332 103016165.55568962 293414041.2856877 293414041.2856877 79.91005165478082 0.16711946848344325 0.08900354518416331
18.706000000000014 1.16511489465508 -0.03685032856385957 0.01549833708093159 0.002108469921381186 0.92562570937844 0.0029652880326445376 -0.0009409791977674443 0.0011426443617278976 0.9278598682868601 489232350.9919056 -349464882.51153684 217750259.34978423 121562652.0366861 288073446.4131614 288073446.4131614 79.91212831321225 0.16711946848344325 0.08900354518416331
18.905000000000015 1.1647153202029001 -0.03644867422867297 0.015347249936532989 0.0019042387318059842 0.9257933731947 0.0029333773137339477 -0.0008865020941187358 0.0011061525540757473 0.92802219792205 436939323.9377835 -322194906.1339566 245083650.74724388 140134431.04026267 282735178.1049947 282735178.1049947 79.9142126106359 0.16711946848344325 0.08900354518416331
19.104000000000017 1.16435461772464 -0.03607628237516077 0.015190206145906387 0.001511239532438832 0.926006330218712 0.0028610997207610305 -0.0007280101883832824 0.001032460567548095 0.928115574859192 389876809.2027995 -288353000.68394184 260818818.37363553 143852008.335126 271445998.4239939 271445998.4239939 79.91614985934149 0.16711946848344325 0.08900354518416331
19.30300000000002 1.16402942329948 -0.035730620673178067 0.015027721188052285 0.0009458080164348572 0.926260660845959 0.00275194854090427 -0.00047450476151092934 0.000924787648393793 0.928145966158694 347622709.2950116 -248465190.37564078 265990752.88386428 134013231.1875593 254711852.40068725 254711852.40068725 79.91799932164082 0.16711946848344325 0.08900354518416331
19.50200000000002 1.16370422887432 -0.03538495897119537 0.014865236230198184 0.0003803765004308825 0.926514991473206 0.002642797361047509 -0.00022099933463857633 0.0008171147292394911 0.928176357458196 305409436.0501216 -208523808.02969226 271197696.8000577 124213004.02078685 237966582.44108775 237966582.44108775 79.9198524148994 0.16711946848344325 0.08900354518416331
19.701000000000022 1.16337903444916 -0.03503929726921266 0.014702751272344081 -0.00018505501557309202 0.926769322100453 0.002533646181190748 3.2506092233776786e-05 0.0007094418100851891 0.928206748757698 263237042.13126448 -168528932.03148276 276439634.4347409 114451309.6654549 221210206.97492284 221210206.97492284 79.92170576490793 0.16711946848344325 0.08900354518416331
19.900000000000023 1.1630538400239998 -0.034693635567229965 0.01454026631448998 -0.0007504865315770667 0.9270236527276999 0.002424495001333987 0.0002860115191061298 0.0006017688909308874 0.9282371400572 221105578.16544592 -128480612.46601287 281716554.1383694 104728159.96031974 204442747.62210914 204442747.62210914 79.92355916746322 0.16711946848344325 0.08900354518416331
20.099000000000025 1.16287432597687 -0.03454140340772491 0.014469043145059202 -0.0010316697591040693 0.927176899980434 0.002346975108233204 0.00041563879798651256 0.0005255601429485654 0.928219584437814 195313687.67345673 -106593677.57539272 276448700.4491019 98242432.974369 192298257.37083286 192298257.37083286 79.92398276743009 0.16711946848344325 0.08900354518416331
20.298000000000027 1.16284196382674 -0.03458455462445981 0.014490003600298403 -0.0010257335033211391 0.927228042814468 0.002301406009835414 0.0004201366344508246 0.000481133386049036 0.928153597587228 185995790.92842063 -103095311.78635184 260500665.92994294 94989049.7571026 184832158.49582845 184832158.49582845 79.92295299926886 0.16711946848344325 0.08900354518416331
20.49700000000003 1.1628096016766098 -0.034627705841194706 0.014510964055537603 -0.0010197972475382091 0.927279185648502 0.0022558369114376235 0.00042463447091513665 0.00043670662914950667 0.928087610736642 176676609.52398562 -99599420.77124184 244550109.12647337 91735572.8634399 177366329.4344307 177366329.4344307 79.92193168898395 0.16711946848344325 0.08900354518416331
20.69600000000003 1.16277723952648 -0.034670857057929605 0.014531924510776803 -0.0010138609917552791 0.927330328482536 0.002210267813039833 0.0004291323073794487 0.0003922798722499773 0.928021623886056 167355833.65087196 -96106037.91129127 228596640.2536829 88481815.10803472 169900284.2003321 169900284.2003321 79.92090521783965 0.16711946848344325 0.08900354518416331
20.89500000000003 1.16274487737635 -0.034714008274664504 0.014552884966016004 -0.0010079247359723491 0.92738147131657 0.0021646987146420426 0.00043363014384376075 0.00034785311535044796 0.92795563703547 158033770.43788427 -92615133.83308937 212640627.8744741 85227970.8504138 162434479.58773056 162434479.58773056 79.91988556074057 0.16711946848344325 0.08900354518416331
21.094000000000033 1.16283372929218 -0.03466581940760397 0.01453405420760619 -0.000868917983220898 0.927345612953692 0.0021528926831784843 0.00036719914625040574 0.0003403125054593036 0.927902093544676 168116968.62346244 -99543301.5996192 202231626.28504062 98655316.17087144 160525536.11322123 160525536.11322123 79.91909735575727 0.16711946848344325 0.08900354518416331
21.293000000000035 1.16305797989871 -0.03451560172353797 0.014470775816928889 -0.0005812686540685368 0.927212572402774 0.0021788007158435644 0.00022153913189055954 0.0003739745065881369 0.927862449551522 199850935.28819144 -118125977.89689897 198006733.7975106 130716390.40246263 164825479.03402454 164825479.03402454 79.91856671072634 0.16711946848344325 0.08900354518416331
21.492000000000036 1.16328223050524 -0.03436538403947197 0.014407497426251588 -0.0002936193249161754 0.927079531851856 0.0022047087485086445 7.587911753071335e-05 0.00040763650771697015 0.9278228055583679 231547746.44630036 -136732413.5820283 193762465.1299901 162779344.65401068 169127120.74311757 169127120.74311757 79.91802684684015 0.16711946848344325 0.08900354518416331
21.691000000000038 1.16350648111177 -0.034215166355405974 0.014344219035574288 -5.9699957638140524e-06 0.926946491300938 0.002230616781173725 -6.97808968291328e-05 0.0004412985088458034 0.927783161565214 263207508.7066962 -155362560.41479582 189498901.3506437 194844206.26545647 173430519.5286169 173430519.5286169 79.91747735187168 0.16711946848344325 0.08900354518416331
21.89000000000004 1.1637307317182999 -0.034064948671339974 0.014280940644896987 0.0002816793333885472 0.92681345075002 0.002256524813838805 -0.00021544091118897904 0.0004749605099746367 0.92774351757206 294830244.2530114 -174016408.11061993 185216053.71988064 226910981.65940595 177735682.97648636 177735682.97648636 79.91691804467177 0.16711946848344325 0.08900354518416331
22.08900000000004 1.1637023784477398 -0.03389943246185796 0.014208970346214383 0.0003768878838767254 0.926827849223352 0.0022488215845388898 -0.00026869573972510317 0.0004583418145617427 0.927752161513869 291570782.7581858 -170694168.1013959 187241026.08409917 246859393.4893469 175496096.4843038 175496096.4843038 79.9172225039492 0.16711946848344325 0.08900354518416331
22.288000000000043 1.1633618181380798 -0.03371500796253596 0.014126257239884782 0.00023424828095992926 0.927024475704184 0.0021995763460687895 -0.00020774191162526047 0.00037957843802991105 0.927820487173048 245225279.25484106 -140202060.8058529 197071848.2363646 251829355.87963793 165168683.41557923 165168683.41557923 79.91856284313319 0.16711946848344325 0.08900354518416331
22.487000000000045 1.1630212578284198 -0.033530583463213956 0.014043544133555182 9.160867804313311e-05 0.9272211021850161 0.0021503311075986888 -0.00014678808352541777 0.0003008150614980794 0.927888812832227 198862639.90699378 -109725360.55006903 206891836.80670393 256811460.29679948 154842969.48670813 154842969.48670813 79.91989157388424 0.16711946848344325 0.08900354518416331
22.686000000000046 1.1626806975187598 -0.03334615896389195 0.013960831027225581 -5.103092487366304e-05 0.927417728665848 0.0021010858691285885 -8.583425542557508e-05 0.00022205168496624775 0.9279571384914059 152482755.73815086 -79264254.85021871 216700934.75515068 261805536.42726377 144518967.10377434 144518967.10377434 79.92121177109927 0.16711946848344325 0.08900354518416331
22.885000000000048 1.1623401372091 -0.03316173446456995 0.013878117920895982 -0.00019367052779045924 0.92761435514668 0.002051840630658488 -2.4880427325732382e-05 0.00014328830843441612 0.928025464150585 106085597.88010289 -48818779.969540186 226499125.31482452 266811575.73768997 134196675.43561164 134196675.43561164 79.9225243099988 0.16711946848344325 0.08900354518416331
23.08400000000005 1.1622293873914 -0.03316438794836246 0.013871657820494826 -9.552738909659786e-05 0.9276766969459039 0.002032138082838045 -6.140012829900138e-05 0.0001159865053482747 0.9280299591606439 89123368.9599022 -40257302.12717452 225059864.814819 272835369.1763646 130095756.90702347 130095756.90702347 79.92251044277756 0.16711946848344325 0.08900354518416331
23.28300000000005 1.16243325908055 -0.03342316009951386 0.013969591716305126 0.0003322587887067616 0.927555196621498 0.0020528808853117354 -0.00023136573216984895 0.00015913804686032906 0.927947066972503 112498337.2516574 -61612538.14440829 208263416.78522924 280232236.350347 134505871.82299235 134505871.82299235 79.92066228329581 0.16711946848344325 0.08900354518416331
23.482000000000053 1.1626371307697 -0.033681932250665264 0.014067525612115427 0.0007600449665101209 0.9274336962970919 0.0020736236877854255 -0.00040133133604069657 0.00020228958837238342 0.927864174784362 135901024.2883495 -82929600.96670851 191489409.61298344 287643699.082375 138908876.84195068 138908876.84195068 79.91884377117155 0.16711946848344325 0.08900354518416331
23.681000000000054 1.16284100245885 -0.033940704401816665 0.014165459507925728 0.0011878311443134805 0.927312195972686 0.0020943664902591157 -0.0005712969399115441 0.0002454411298844378 0.927781282596221 159331547.41707602 -104208350.946992 174737835.73798203 295069685.4950575 143304752.6078231 143304752.6078231 79.9170313127537 0.16711946848344325 0.08900354518416331
23.880000000000056 1.163044874148 -0.03419947655296807 0.014263393403736028 0.00161561732211684 0.9271906956482799 0.002115109292732806 -0.0007412625437823917 0.0002885926713964921 0.92769839040808 182789909.74108985 -125448749.22837554 158008701.46963117 302510172.708012 147693495.48009118 147693495.48009118 79.91522189247698 0.16711946848344325 0.08900354518416331
24.079000000000057 1.16320473058109 -0.03417443491850797 0.01423876553153914 0.0025779285137913824 0.9270231031613689 0.0021942687134451585 -0.0011621607817575437 0.0003864731864579063 0.9276966857628821 203078528.97239822 -148999687.5555076 156566377.6453634 367666685.05788285 159806833.3579082 159806833.3579082 79.91375269356367 0.16713191915162826 0.08900354518416331
24.27800000000006 1.16329772839738 -0.03371828373628406 0.014027967885154338 0.004352176435395866 0.9267854972630579 0.00236216223781107 -0.001964222514574222 0.0005674863195688817 0.9278183039677241 227460320.10285088 -156996144.8290057 149495315.453903 459196977.585624 161272894.75158492 161272894.75158492 79.90925202395127 0.16777272544262967 0.08901819600899137
24.47700000000006 1.16339072621367 -0.03326213255406016 0.013817170238769536 0.006126424357000351 0.9265478913647469 0.0025300557621769815 -0.0027662842473909007 0.0007484994526798573 0.927939922172566 247444825.58958638 -148136333.30164197 128968909.96217032 486760342.5270743 146586062.9021247 146586062.9021247 79.90682770646573 0.16900512880196344 0.08914251067738531
24.676000000000062 1.16348372402996 -0.03280598137183626 0.013606372592384734 0.007900672278604835 0.9263102854664359 0.0026979492865428925 -0.0035683459802075793 0.0009295125857908327 0.9280615403774081 260713355.37794203 -138846429.99318203 113755805.18476978 503223340.33235276 134097821.26594797 134097821.26594797 79.90548995388745 0.17030985288713374 0.08939924666019038
24.875000000000064 1.16357672184625 -0.03234983018961236 0.013395574945999932 0.00967492020020932 0.926072679568125 0.002865842810908804 -0.0043704077130242575 0.001110525718901808 0.9281831585822501 269348508.86294687 -130675345.50023441 103332676.85341609 515406640.69199586 124609160.78094241 124609160.78094241 79.90457058379296 0.17162985067769737 0.08975867542443688
25.074000000000066 1.1636122318072 -0.03184587226417881 0.013159527356033908 0.011023515887198207 0.9257608401431299 0.003098975416163573 -0.00497538097095119 0.0013977868357817338 0.9284440858931302 270277935.3886568 -136844867.5595372 116205345.7867242 518318346.68746006 131436463.59583119 131436463.59583119 79.90370392360596 0.17281699115881674 0.09013776144687738
25.273000000000067 1.1635506339044 -0.03126115970494531 0.012880827834342905 0.011653104421121212 0.9253236062473849 0.003442309171568286 -0.005247434507781042 0.0018645208982170675 0.9289403326398852 262499522.89633802 -164370821.28577167 162005975.6631602 506320656.35373896 161441403.03808117 161441403.03808117 79.90290417001297 0.17380787780673362 0.09043901886670123
25.47200000000007 1.1634890360016001 -0.0306764471457118 0.012602128312651903 0.012282692955044217 0.9248863723516398 0.003785642926972999 -0.005519488044610894 0.0023312549606524014 0.9294365793866403 255911967.66121396 -184713926.91997206 198585835.71166644 494536796.6364792 184624250.24827483 184624250.24827483 79.90213687490153 0.17483471071562778 0.09076019395328772
25.67100000000007 1.1634274380988001 -0.03009173458647829 0.012323428790960902 0.012912281488967222 0.9244491384558948 0.004128976682377711 -0.005791541581440746 0.002797989023087735 0.9299328261333952 250225333.12838063 -199719922.6705142 228082216.98807988 484124096.4103757 202697461.65488377 202697461.65488377 79.90144664158862 0.17588308847426096 0.09110060824853623
25.870000000000072 1.163365840196 -0.029507022027244787 0.012044729269269899 0.013541870022890227 0.9240119045601498 0.004472310437782424 -0.006063595118270599 0.003264723085523069 0.9304290728801502 245162827.38002765 -210773599.3518933 252157500.93901965 475392283.134117 216909195.7574283 216909195.7574283 79.90081858179298 0.17694496557135642 0.09146436886558884
26.069000000000074 1.1634980053242303 -0.028057380662421357 0.011433390486462101 0.013111164044564031 0.9235184589278237 0.004848410091404072 -0.005892428150605758 0.0037443090727549565 0.9308412888964681 255597087.09519598 -233172188.10256353 255886866.04600787 467787219.6205509 231900967.29463607 231900967.29463607 79.89840420357275 0.17803618132797375 0.09191503362021203
26.268000000000075 1.1639952312355604 -0.024978163287068835 0.010195340052275851 0.01068280173881504 0.9229191071251277 0.005286242596738685 -0.004886208058531979 0.004248108831342631 0.9310951861452962 291334685.87420505 -274398466.50499564 228981106.1100208 458896825.85190254 249191936.4036502 249191936.4036502 79.89281574413931 0.17919801226043575 0.09253616760660395
26.467000000000077 1.1644924571468902 -0.02189894591171631 0.008957289618089602 0.00825443943306605 0.9223197553224317 0.005724075102073299 -0.0038799879664582013 0.004751908589930305 0.9313490833941241 318400417.5768623 -304915229.305051 207523628.26251283 450081200.321901 261505388.31538722 261505388.31538722 79.88758765692316 0.1803872225112978 0.09318582214787899
26.66600000000008 1.1649896830582203 -0.018819728536363784 0.007719239183903352 0.005826077127317062 0.9217204035197357 0.0061619076074079125 -0.002873767874384423 0.005255708348517979 0.9316029806429521 339433437.87409914 -327189763.05509144 191358000.14767665 442265455.06291485 270483953.70567673 270483953.70567673 79.88278872836702 0.18159167838218623 0.09385161592912464
26.86500000000008 1.1654869089695503 -0.01574051116101126 0.0064811887497171015 0.003397714821568072 0.9211210517170397 0.006599740112742526 -0.0018675477823106449 0.0057595081071056525 0.9318568778917802 356544226.5768217 -342901358.89023685 180065529.546652 435707027.9702414 277191286.25382316 277191286.25382316 79.87843646838616 0.18280456799587763 0.09452730642414973
27.06400000000008 1.1661479958530405 -0.012870819611065083 0.005336048528705498 0.0006636524077201318 0.9206126159723919 0.006917444372157627 -0.000706789471493629 0.006096217154523193 0.9318882838328318 400637810.4979808 -364197715.1593553 154204997.27676252 423375845.88043827 280962874.07463384 280962874.07463384 79.87406076185869 0.18366895334024008 0.09506028791264005
27.263000000000083 1.1671547269746805 -0.010443096599084593 0.004386890788608798 -0.0027152461716478263 0.9202959562876889 0.006981753112836727 0.0007799478944842933 0.006080469233066894 0.9314503721715438 514233935.74951 -399254762.88322324 79275560.96881245 383690654.293615 273315725.13827336 273315725.13827336 79.8695353399389 0.183923332666421 0.09533978690383521
27.462000000000085 1.1681614580963204 -0.008015373587104104 0.0034377330485120985 -0.006094144751015783 0.9199792966029858 0.007046061853515828 0.0022666852604622152 0.006064721311610594 0.9310124605102559 608815217.3299124 -414228050.6894197 11698568.613677867 337128443.719075 257503447.56085616 257503447.56085616 79.86597750021029 0.18434565724786706 0.09566595834178454
27.661000000000087 1.1691681892179604 -0.005587650575123613 0.002488575308415399 -0.00947304333038374 0.9196626369182829 0.007110370594194928 0.003753422626440138 0.0060489733901542934 0.9305745488489678 684752865.0919286 -413063367.05382246 -44955514.96487929 289283506.3245251 236965919.05083597 236965919.05083597 79.86355551015869 0.18490407226565067 0.09600521555183424
27.86000000000009 1.1701749203396006 -0.003159927563143124 0.001539417568318699 -0.012851941909751698 0.9193459772335799 0.0071746793348740285 0.0052401599924180595 0.006033225468697993 0.9301366371876798 745291857.7128241 -400153853.18430966 -89539346.30029744 243645109.74609867 214392257.9253811 214392257.9253811 79.86218588198659 0.18556623316620238 0.09635362226984472
28.05900000000009 1.1703925279238492 -0.001083082855102098 0.0006706245315818158 -0.015699293626475017 0.9196549953434159 0.006913104682159283 0.006525472954226495 0.0056898681770490124 0.9296923925646268 787888767.6972407 -341168705.32211125 -153934927.68075722 228011445.5312915 164774178.7800997 164774178.7800997 79.86383721558713 0.18557148457614844 0.0963635051281575
28.25800000000009 1.1687376389786992 0.00016116926732165208 -7.472598877947788e-06 -0.01728534770302733 0.9214486726267308 0.005878247401054025 0.007332829702752432 0.004569132718842801 0.9292331205746738 583329915.6572398 -32340240.451147955 -219908320.39215785 229028735.16319153 -15022412.103675898 -15022412.103675898 79.8765184857417 0.18557148457614844 0.0963635051281575
28.457000000000093 1.1670827500335492 0.0014054213897454022 -0.0006855697293377113 -0.018871401779579643 0.9232423499100458 0.004843390119948766 0.008140186451278368 0.0034483972606365897 0.9287738485847208 378333778.30569994 274929528.33640933 -285955332.69112116 230468453.15517694 -194293762.91280666 -194293762.91280666 79.88884896330197 0.18557757682984483 0.0963635051281575
28.656000000000095 1.1654278610883992 0.002649673512169153 -0.001363666859797475 -0.020457455856131956 0.9250360271933609 0.003808532838843507 0.008947543199804304 0.002327661802430378 0.9283145765947678 199955196.45368204 445726968.91253084 -244368809.4661324 198021001.39716515 -276248994.44908553 -276248994.44908553 79.90512915152776 0.18688962655102212 0.0963635051281575
28.855000000000096 1.1637729721432493 0.0038939256345929024 -0.0020417639902572384 -0.02204350993268427 0.9268297044766759 0.0027736755577382486 0.009754899948330242 0.001206926344224167 0.9278553046048148 95927456.58658624 509472120.5674022 -172038228.607581 165315704.6879155 -288276538.4367452 -288276538.4367452 79.91857891447495 0.1890906211233652 0.096366981570792
29.054000000000098 1.1621829790729392 0.004115100524280757 -0.0022401091135748636 -0.02296131542642217 0.9285709012818127 0.0017065234580969921 0.010246558316643185 7.178596666181412e-05 0.9273835612662618 27848947.13605612 541339051.4797271 -128018964.52532947 116905868.11799267 -296679706.0193606 -296679706.0193606 79.92936004527544 0.1913977196407888 0.09636956107954137
29.2530000000001 1.1607672434443292 0.0015891235853327363 -0.0011502312547547547 -0.02208474972557026 0.9301711782844347 0.0005526537901648428 0.009890508071423342 -0.0011020342869493434 0.9268783300472088 -24544810.98266602 530051599.0099148 -117834189.0370883 14693793.19347755 -307301454.59821445 -307301454.59821445 79.93605161556259 0.19380998480846892 0.09636956107954137
29.4520000000001 1.1593515078157193 -0.0009368533536152843 -6.0353395934645716e-05 -0.021208184024718354 0.9317714552870567 -0.0006012158777673068 0.0095344578262035 -0.002275854540560501 0.9263730988281558 -63385416.023262575 512715250.8012904 -116625806.356421 -49848620.34016173 -311409872.53004414 -311409872.53004414 79.9419264534082 0.1963671356785295 0.09636956107954137
29.651000000000103 1.1579357721871093 -0.0034628302925633044 0.001029524462885463 -0.020331618323866447 0.9333717322896788 -0.001755085545699456 0.009178407580983657 -0.003449674794171659 0.9258678676091028 -97588820.64578779 497625924.42168224 -123761135.36653368 -91807018.35399309 -315754305.9175922 -315754305.9175922 79.94711381132404 0.19897995404813063 0.09636956107954137
29.850000000000104 1.156520036558499 -0.005988807231511324 0.002119402321705572 -0.01945505262301454 0.9349720092923008 -0.0029089552136316054 0.008822357335763814 -0.004623495047782816 0.9253626363900497 -130405209.75846167 485710592.7656323 -136909766.5656352 -120602683.55348733 -321674842.3533804 -321674842.3533804 79.95169637513054 0.20161633384984654 0.09636956107954137
30.049000000000106 1.1551136090169292 -0.008018214357851081 0.003018405593306918 -0.01751958084810969 0.9364845878492206 -0.00398639629708526 0.007981892342078212 -0.005714584750693906 0.9249219468915758 -180045274.2331525 496466379.25345635 -155213344.9348754 -82316607.9357754 -341019902.4319482 -341019902.4319482 79.9556861193463 0.2038075905323039 0.09636956107954137
30.248000000000108 1.153735675619359 -0.008527509812945396 0.00333309890403617 -0.012342559866929597 0.9377287017764406 -0.004829872326013576 0.005658525057175142 -0.006552417665748373 0.9246788340887518 -234538151.96122247 502579418.9966438 -157567064.60683063 171261826.73287466 -349302969.23262393 -349302969.23262393 79.95953762460236 0.20562807994852372 0.09639988456491039
30.44700000000011 1.1523577422217892 -0.00903680526803971 0.003647792214765423 -0.007165538885749506 0.9389728157036606 -0.0056733483549418935 0.0033351577722720736 -0.00739025058080284 0.9244357212859278 -237584834.8463406 448893798.7132228 -150894322.20837712 315219998.22741747 -318517556.0424268 -318517556.0424268 79.9610180044356 0.20836151091003383 0.09647168591379883
30.64600000000011 1.1509798088242191 -0.009546100723134023 0.0039624855254946755 -0.0019885179045694146 0.9402169296308807 -0.00651682438387021 0.0010117904873690048 -0.008228083495857307 0.9241926084831038 -239634762.42406613 400128500.8513748 -149483601.67622912 393951663.5863716 -292722037.7932246 -292722037.7932246 79.96065430196222 0.21141049223530423 0.09665345014444952
30.845000000000113 1.149601875426649 -0.01005539617822834 0.004277178836223928 0.0031885030766106784 0.9414610435581007 -0.0073603004127985264 -0.001311576797534065 -0.009065916410911774 0.9239494956802798 -249308059.3941616 364316085.02496344 -152756190.1626948 438669989.1644054 -276251676.4172874 -276251676.4172874 79.95779446674001 0.21456496252974727 0.09713726052986446
31.044000000000114 1.1490633203596412 -0.011367482885770776 0.004895817095549609 0.00678166058390078 0.9418145886370504 -0.007594008021168581 -0.0029356767616137984 -0.009303981127351804 0.9239422943485044 -256567398.33437893 336411273.6556727 -145490797.2579365 462609449.29910076 -260887973.5046112 -260887973.5046112 79.95521825247839 0.21580898995941017 0.09737260618513546
31.243000000000116 1.1514816662298313 -0.015507584232609709 0.006585170514700063 0.0047952990354605835 0.9390309025459673 -0.005679667784397346 -0.0020964486637104216 -0.0074292260532252685 0.9247661447897384 77178106.14677294 -111900854.2772419 754310.4279633447 -4564123.012749935 52057128.20384847 52057128.20384847 79.94793826785347 0.21580898995941017 0.09737260618513546
31.442000000000117 1.1539000121000214 -0.01964768557944864 0.008274523933850517 0.0028089374870203876 0.9362472164548844 -0.00376532754762611 -0.001257220565807045 -0.005554470979098734 0.9255899952309724 242377815.24493584 -306278312.78963476 41624410.688595004 -232116763.0852183 181333524.30901977 181333524.30901977 79.92795689331795 0.2190161852684629 0.09737260618513546
31.64100000000012 1.1563183579702114 -0.023787786926287576 0.009963877353000972 0.0008225759385801917 0.9334635303638014 -0.001850987310854875 -0.00041799246790366834 -0.003679715904972199 0.9264138456722064 271174800.8513443 -330971781.246568 29009382.814194564 -273936668.75932807 191815628.7846417 191815628.7846417 79.91111884782443 0.2245428180060675 0.09737260618513546
31.84000000000012 1.1587367038404013 -0.02792788827312651 0.011653230772151423 -0.001163785609860005 0.9306798442727183 6.33529259163601e-05 0.0004212356299997085 -0.0018049608308456644 0.9272376961134404 285519475.9032581 -364952337.0839084 19836663.6492117 -307803004.9695371 206486501.64789754 206486501.64789754 79.89258052140217 0.2301197570135282 0.09737260618513546
32.03900000000012 1.16068110253 -0.0312566129741 0.013011504878 -0.00276086022167 0.928441704702 0.00160252095548 0.00109599188962 -0.00029762006773 0.927900088428 289588366.34936994 -397707216.5424682 10593349.87992031 -332313837.93401945 219452980.04490337 219452980.04490337 79.87637433940085 0.23463872443667325 0.09737260618513546
32.23800000000012 1.16068110253 -0.0312566129741 0.013011504878 -0.00276086022167 0.928441704702 0.00160252095548 0.00109599188962 -0.00029762006773 0.927900088428 289586610.44317275 -397704963.81119746 10592829.137896487 -332311925.76420516 219451561.1812129 219451561.1812129 79.87636670331054 0.23463875170549112 0.09737260618513546
32.43700000000012 1.16068110253 -0.0312566129741 0.013011504878 -0.00276086022167 0.928441704702 0.00160252095548 0.00109599188962 -0.00029762006773 0.927900088428 289581320.43226206 -397698077.9022845 10591246.243316982 -332305451.6153546 219446989.8306211 219446989.8306211 79.87636346237345 0.23463883723802964 0.09737260618513546
32.63600000000012 1.16068110253 -0.0312566129741 0.013011504878 -0.00276086022167 0.928441704702 0.00160252095548 0.00109599188962 -0.00029762006773 0.927900088428 289576656.0828647 -397692021.9800424 10589872.789733116 -332299694.46608377 219442962.42078844 219442962.42078844 79.8763620901562 0.23463891266927878 0.09737260618513546
32.835000000000115 1.16068110253 -0.0312566129741 0.013011504878 -0.00276086022167 0.928441704702 0.00160252095548 0.00109599188962 -0.00029762006773 0.927900088428 289572839.57591254 -397686989.4345501 10588671.186401952 -332294899.9344171 219439627.39594322 219439627.39594322 79.87636142201549 0.2346389751436215 0.09737260618513546
33.03400000000011 1.1606902481706198 -0.031255679231848396 0.013011076050235798 -0.002738518607577706 0.928440811404326 0.0016022029683182791 0.0010864741628738746 -0.0002977988256223126 0.927898856954528 291527131.10632 -397008630.26768 11134775.372120637 -330708414.98910123 219359177.87398502 219359177.87398502 79.87649830457386 0.2346389751436215 0.09737260618513546
33.23300000000011 1.16074377706719 -0.0312502140933758 0.013008566146557097 -0.0026077544545085375 0.928435582985587 0.001600341808165859 0.001030767468095266 -0.00029884508505084457 0.927891649212736 302964400.5147457 -393038400.1315447 14330761.948463941 -321423274.68596566 218888203.3822144 218888203.3822144 79.87729593486237 0.2346389751436215 0.09737260618513546
33.43200000000011 1.16079730596376 -0.031244748954903194 0.013006056242878398 -0.0024769903014393684 0.9284303545668481 0.001598480648013439 0.0009750607733166576 -0.0002998913444793766 0.927884441470944 314399260.24853903 -389067689.64644367 17526393.39058729 -312138205.8804858 218416804.08652747 218416804.08652747 79.87809262883579 0.2346389751436215 0.09737260618513546
33.63100000000011 1.16085083486033 -0.031239283816430596 0.013003546339199697 -0.0023462261483701997 0.928425126148109 0.001596619487861019 0.0009193540785380492 -0.0003009376039079086 0.927877233729152 325831813.78101236 -385096483.89536554 20721681.798809696 -302853138.73917997 217944997.7151663 217944997.7151663 79.87888896611226 0.2346389751436215 0.09737260618513546
33.830000000000105 1.1609043637569 -0.031233818677957995 0.013001036435520998 -0.002215461995301031 0.9284198977293701 0.001594758327708599 0.0008636473837594406 -0.00030198386333644056 0.92787002598736 337262086.5992698 -381124774.93084943 23916632.966910306 -293568059.7882718 217472787.18576804 217472787.18576804 79.87968488963814 0.2346389751436215 0.09737260618513546
34.0290000000001 1.16094345295549 -0.0312293594304955 0.012998583247069798 -0.0021058794040679377 0.928415533890125 0.001595702873523169 0.0008171444411281648 -0.0002998320053939272 0.927869443650847 346181133.7167154 -377686365.2318082 27604380.52997837 -285809957.6563033 217535653.36969572 217535653.36969572 79.88040177488345 0.2346389751436215 0.09737260618513546
34.2280000000001 1.16089789564868 -0.031230796785506 0.012996462527193598 -0.0021204645891147672 0.9284162382755 0.0016130946612131288 0.0008245945283258558 -0.0002789325628626054 0.9279076998970041 340391850.25735694 -377377771.73482585 34182282.819936484 -287003492.9936845 220737562.77908164 220737562.77908164 79.88066435526201 0.2346389751436215 0.09737260618513546
34.4270000000001 1.16085233834187 -0.031232234140516502 0.012994341807317398 -0.002135049774161597 0.928416942660875 0.0016304864489030885 0.0008320446155235467 -0.00025803312033128363 0.927945956143161 334601975.12749773 -377069759.5036988 40759330.76791872 -288196961.7897108 223939314.16679057 223939314.16679057 79.88092128876227 0.2346389751436215 0.09737260618513546
34.6260000000001 1.16080678103506 -0.031233671495527002 0.012992221087441198 -0.002149634959208427 0.92841764704625 0.0016478782365930485 0.0008394947027212376 -0.00023713367779996182 0.927984212389318 328811441.0413816 -376762295.862809 47335574.091482535 -289390420.379939 227140911.5887514 227140911.5887514 79.88117550980928 0.2346389751436215 0.09737260618513546
34.825000000000095 1.16076122372825 -0.031235108850537503 0.012990100367564998 -0.002164220144255257 0.928418351431625 0.0016652700242830083 0.0008469447899189285 -0.00021623423526864 0.928022468635475 323020211.83885366 -376455374.16846436 53911027.19138261 -290583892.0448147 230342357.1233322 230342357.1233322 79.8814283198029 0.2346389751436215 0.09737260618513546
35.02400000000009 1.16072639278296 -0.031211946601063106 0.01297774998981836 -0.0021807910341078546 0.928418641747328 0.0016790473102974341 0.0008550157722747579 -0.00019943688353313415 0.928053254233392 318736378.04960644 -376133002.16590077 59334723.64716712 -289856742.54866743 232904269.4715075 232904269.4715075 79.8816528589095 0.2346389751436215 0.09737260618513546
35.22300000000009 1.16076977489042 -0.03100941223555381 0.01289080835676676 -0.0022118410215024443 0.928415912805006 0.001666468854927874 0.0008676141151586598 -0.00021255061051698703 0.928029566354559 325450478.3317465 -375693367.05349225 56366233.20540004 -275125223.0402611 230803879.01352668 230803879.01352668 79.88167091369388 0.2346389751436215 0.09737260618513546
35.42200000000009 1.1608131569978801 -0.03080687787004451 0.012803866723715161 -0.002242891008897034 0.928413183862684 0.0016538903995583143 0.0008802124580425617 -0.0002256643375008399 0.928005878475726 332170413.8022854 -375254747.32874835 53398519.54150302 -260395017.8359506 228704562.04846 228704562.04846 79.8816998905933 0.2346389751436215 0.09737260618513546
35.62100000000009 1.16085653910534 -0.03060434350453521 0.012716925090663562 -0.0022739409962916238 0.928410454920362 0.0016413119441887544 0.0008928108009264636 -0.00023877806448469277 0.927982190596893 338896337.6062019 -374817210.1376583 50431483.344231874 -245666018.78715274 226606277.6901171 226606277.6901171 79.88173061523742 0.2346389751436215 0.09737260618513546
35.820000000000086 1.1608999212128 -0.030401809139025914 0.012629983457611963 -0.0023049909836862135 0.92840772597804 0.0016287334888191946 0.0009054091438103654 -0.00025189179146854567 0.92795850271806 345628293.4452844 -374380754.65604186 47465122.187139034 -230938203.79763007 224509015.619009 224509015.619009 79.88176137482635 0.2346389751436215 0.09737260618513546
36.019000000000084 1.16093741765093 -0.030222160499356415 0.012552174801972703 -0.0023348546207460977 0.928404038698518 0.0016178414154287722 0.0009173763859758305 -0.0002624557662941973 0.927938101447656 351285802.2237123 -374402381.30997616 44746062.04455356 -218032878.89187214 222763694.93286252 222763694.93286252 79.88174629331044 0.2346389751436215 0.09737260618513546
36.21800000000008 1.16091915511646 -0.030259323999220815 0.012560889090239403 -0.0023534791493719878 0.928391272434996 0.001622925592366942 0.0009233647792298185 -0.0002488641943580604 0.927948836467632 346707187.7854964 -378752215.98612565 44363932.74972666 -222382421.62238201 224342531.14024967 224342531.14024967 79.88129943749566 0.2346389751436215 0.09737260618513546
36.41700000000008 1.16090089258199 -0.030296487499085215 0.012569603378506104 -0.0023721036779978774 0.928378506171474 0.001628009769305112 0.0009293531724838064 -0.00023527262242192357 0.927959571487608 342128340.11184275 -383102508.11009973 43981539.839565754 -226732026.28018612 225921385.0379993 225921385.0379993 79.88085432110917 0.2346389751436215 0.09737260618513546
36.61600000000008 1.16088263004752 -0.030333650998949614 0.012578317666772804 -0.0023907282066237675 0.928365739907952 0.001633093946243282 0.0009353415657377943 -0.00022168105048578671 0.927970306507584 337549216.34509796 -387453265.61965996 43598879.83781398 -231081738.26026827 227500263.96626133 227500263.96626133 79.8804098730159 0.2346389751436215 0.09737260618513546
36.815000000000076 1.16086436751305 -0.030370814498814014 0.012587031955039503 -0.002409352735249657 0.92835297364443 0.001638178123181452 0.0009413299589917823 -0.00020808947854964984 0.92798104152756 332969796.0863795 -391804493.7621991 43215948.280657835 -235431578.19569424 229079171.68769732 229079171.68769732 79.87996565536706 0.2346389751436215 0.09737260618513546
37.014000000000074 1.16084451252548 -0.030361905382863773 0.012576699697611703 -0.0024749903362976354 0.928343692740072 0.0016397861231930036 0.0009677057499433979 -0.00019864010410453284 0.92798879578557 327911725.5530973 -396022767.20771277 42045124.90195525 -239118637.6486684 230104283.0434602 230104283.0434602 79.87946682993821 0.2346389751436215 0.09737260618513546
37.21300000000007 1.16080361440766 -0.02974417955793778 0.012314680943508006 -0.0031618721086339586 0.9283804683675241 0.001595458928103074 0.001263486439040703 -0.0002439269107904384 0.927957161403315 316626166.58260417 -398386291.7892746 30529175.54621211 -234044193.75197375 223796671.60234666 223796671.60234666 79.87828133016583 0.2346389751436215 0.09737260618513546
37.41200000000007 1.16076271628984 -0.029126453733011783 0.012052662189404309 -0.003848753880970282 0.928417243994976 0.0015511317330131444 0.001559267128138008 -0.000289213717476344 0.92792552702106 305525837.6203786 -400589418.9347781 19129355.788684975 -228962725.89910138 217465701.52331385 217465701.52331385 79.87711434017291 0.2346389751436215 0.09737260618513546
37.61100000000007 1.16072181817202 -0.028508727908085788 0.011790643435300611 -0.0045356356533066055 0.928454019622428 0.0015068045379232147 0.0018550478172353131 -0.0003345005241622495 0.927893892638805 294610876.23746467 -402632139.96407473 7845713.289905645 -223874078.86664698 211111325.04088297 211111325.04088297 79.87597094558556 0.2346389751436215 0.09737260618513546
37.810000000000066 1.1606809200541999 -0.027891002083159797 0.011528624681196913 -0.005222517425642928 0.9284907952498801 0.0014624773428332852 0.0021508285063326182 -0.0003797873308481551 0.92786225825655 283881308.2845901 -404514463.43896776 -3321748.017276213 -218778255.6778947 204733543.820049 204733543.820049 79.87485146398869 0.2346389751436215 0.09737260618513546
38.009000000000064 1.16064846346874 -0.027307776687561645 0.011280909811293618 -0.005877624745825545 0.9285200752828889 0.0014152286109800367 0.0024324919645200044 -0.0004269091204400958 0.9278190430289489 272990957.0403672 -408817022.3330415 -17719966.36526191 -214388576.49549547 197891109.21123433 197891109.21123433 79.87336520671786 0.2346389751436215 0.09737260618513546
38.20800000000006 1.16079421701088 -0.027452893688879244 0.011335165830063217 -0.005861938076101595 0.928391114988768 0.0013063029919016297 0.002416124992389115 -0.0005127694380480429 0.9275313432884879 254859292.2335802 -467523822.88561875 -102736341.83505052 -225067630.3657256 181714394.1562072 181714394.1562072 79.86362908550304 0.2346389751436215 0.09737260618513546
38.40700000000006 1.1609399705530201 -0.027598010690196843 0.011389421848832817 -0.005846251406377645 0.928262154694647 0.001197377372823223 0.002399758020258225 -0.0005986297556559901 0.9272436435480269 236710286.7405339 -526252903.53737676 -187786427.3306316 -235744229.4404371 165531126.95812443 165531126.95812443 79.85390327261504 0.2346389751436215 0.09737260618513546
38.60600000000006 1.16108572409516 -0.027743127691514442 0.011443677867602416 -0.005830564736653695 0.928133194400526 0.001088451753744816 0.002383391048127335 -0.0006844900732639373 0.9269559438075659 218544042.60860628 -585004379.2090906 -272870433.8983846 -246418343.59394372 149341295.8833557 149341295.8833557 79.84417224614852 0.2346389751436215 0.09737260618513546
38.80500000000006 1.1612314776373 -0.02788824469283204 0.011497933886372014 -0.0058148780669297455 0.928004234106405 0.000979526134666409 0.0023670240759964454 -0.0007703503908718845 0.9266682440671049 200360563.66010952 -643778268.5456766 -357988397.6556675 -257089977.70149118 133144899.7061991 133144899.7061991 79.83443425773208 0.2346389751436215 0.09737260618513546
39.004000000000055 1.16137016933092 -0.028009578427126914 0.011542433290060201 -0.005866217105409912 0.927878622406564 0.0008720311366266016 0.0023794774651315492 -0.0008556021734279353 0.9263859000934 181291197.19208354 -702032914.3718446 -442109723.1872387 -270228294.8183182 117196358.32124321 117196358.32124321 79.82477264584959 0.2346398224782798 0.09737260618513546
39.20300000000005 1.1611645959091899 -0.026971477894080127 0.011111297708536125 -0.00918505941879513 0.927916254677873 0.000834278914217549 0.0037969234659642453 -0.0009111878722044548 0.92636464974905 81776148.59792043 -700219516.9013731 -469719163.90523916 -362672038.7900822 101859598.86229068 101859598.86229068 79.82049753972997 0.23516186792428695 0.09737260618513546
39.40200000000005 1.16095902248746 -0.025933377361033336 0.01068016212701205 -0.012503901732180345 0.927953886949182 0.0007965266918084964 0.005214369466796941 -0.0009667735709809743 0.9263433994047 -28482259.922619935 -684718457.3028666 -496539969.2317686 -415855640.56472456 81383407.81463113 81383407.81463113 79.81417115173929 0.23602726013732656 0.09737260618513546
39.60100000000005 1.1607534490657299 -0.024895276827986545 0.010249026545487974 -0.015822744045565565 0.927991519220491 0.0007587744693994437 0.006631815467629638 -0.0010223592697574937 0.92632214906035 -129273880.20217387 -674119802.6575685 -524200579.361576 -451966457.7547092 63083896.08823663 63083896.08823663 79.80755948029334 0.23699776014409016 0.09737260618513546
39.80000000000005 1.160547875644 -0.023857176294939757 0.009817890963963898 -0.01914158635895078 0.9280291514918 0.000721022246990391 0.008049261468462333 -0.0010779449685340131 0.926300898716 -218559807.6954357 -670366902.5015789 -552790516.992486 -476746334.77391064 47654544.45463649 47654544.45463649 79.80052866445153 0.23803518614677402 0.09737260618513546
39.999000000000045 1.1603423022222699 -0.022819075761892967 0.009386755382439823 -0.022460428672336 0.9280667837631089 0.0006832700245813384 0.009466707469295031 -0.0011335306673105326 0.92627964837165 -296955517.85195434 -673073803.168823 -582074909.4783065 -494546869.86598 34919360.40995895 34919360.40995895 79.79334934887531 0.23911412532542606 0.09737260618513546
40.19800000000004 1.1647443972589009 -0.02340608556807473 0.009687061674708425 -0.03079740052176061 0.9263158003194216 0.0005341838701004838 0.01310410220582323 -0.001175476883080669 0.9245093108733097 -152971072.34370947 -779366121.8186955 -741612840.9164788 -485579615.4256834 9902445.659984207 9902445.659984207 79.76712540614449 0.24533589963480706 0.09758214936850065
40.39700000000004 1.1691697633483509 -0.024001303002232025 0.009991062117854603 -0.03915971645974993 0.9245557834630326 0.0003845354230334334 0.016752708804652416 -0.0012173542125729986 0.9227301396014647 -124837775.44106065 -851149512.6825049 -836064920.9550078 -485267171.82124144 -1394140.0016994493 -1394140.0016994493 79.7380887754043 0.2518598747468025 0.09882741253176601
40.59600000000004 1.1735951294378009 -0.024596520436389317 0.01029506256100078 -0.04752203239773925 0.9227957666066436 0.00023488697596638297 0.0204013154034816 -0.0012592315420653281 0.9209509683296196 -149905286.75828677 -909944167.1697592 -906332854.648737 -487103768.8773353 -6519051.936893142 -6519051.936893142 79.70388229845007 0.2584000490467509 0.10171517966880317
40.79500000000004 1.1780204955272509 -0.025191737870546613 0.010599063004146958 -0.05588434833572857 0.9210357497502547 8.523852889933249e-05 0.024049922002310785 -0.001301108871557658 0.9191717970577746 -198398268.71439335 -967789439.1950953 -970097045.4743876 -489736267.3747247 -8928948.714632785 -8928948.714632785 79.66629173782947 0.2649242682256231 0.10547441311152424
40.994000000000035 1.1824458616167008 -0.025786955304703905 0.010903063447293134 -0.06424666427371789 0.9192757328938657 -6.440991816771794e-05 0.027698528601139968 -0.0013429862010499874 0.9173926257859296 -258035911.32073063 -1029313581.736927 -1034953132.4495697 -492972105.01260626 -10152633.269922933 -10152633.269922933 79.62612886877243 0.2714403183683478 0.10953701344568688
41.19300000000003 1.1919294495198915 -0.026932779098455897 0.0114847489995732 -0.06768497158176455 0.9158111653270384 -0.0003372381334120461 0.029121026048161927 -0.0014508930555342783 0.9136531181317803 -97051855.11348405 -1111882221.190189 -1138220540.5390766 -342111952.60616815 -19230645.464581292 -19230645.464581292 79.56862780512101 0.2797393799928846 0.11487191631717851
41.39200000000003 1.2015702878421615 -0.028095720188360984 0.012075067249546493 -0.07097020090131652 0.9122936065464154 -0.0006138957715012404 0.030474318029325015 -0.0015608526413654574 0.9098526673776633 -71524433.96821742 -1156255464.354559 -1190616424.8004894 -273502106.5798069 -21552952.373813473 -21552952.373813473 79.50439418563312 0.28854768844529766 0.1205868607684107
41.59100000000003 1.2112111261644314 -0.02925866127826607 0.012665385499519788 -0.07425543022086849 0.9087760477657925 -0.0008905534095904349 0.0318276100104881 -0.0016708122271966363 0.9060522166235464 -91951789.5974427 -1206109541.216882 -1243516647.7751968 -244196183.44660982 -21876547.328418307 -21876547.328418307 79.43451923160076 0.29737926758871597 0.1264806380786451
41.79000000000003 1.2208519644867013 -0.03042160236817116 0.013255703749493083 -0.07754065954042046 0.9052584889851695 -0.0011672110476796294 0.03318090199165119 -0.0017807718130278152 0.9022517658694295 -138680939.40888965 -1269505281.5680602 -1308090335.979922 -229636755.98594254 -21771571.55336198 -21771571.55336198 79.35916055525156 0.3061896864962403 0.13249743256201288
41.989000000000026 1.2304928028089712 -0.03158454345807625 0.013846021999466376 -0.08082588885997243 0.9017409302045466 -0.0014438686857688237 0.03453419397281428 -0.001890731398858994 0.8984513151153125 -206342185.62848985 -1348378630.3473108 -1387370419.0804884 -221164350.1161057 -21614184.685155414 -21614184.685155414 79.278481154341 0.3149755379471095 0.13859287337332016
42.188000000000024 1.240170391576161 -0.03458572949536597 0.015245866837014573 -0.07479680217003921 0.8983878485117996 -0.001389708346544511 0.031865697537801656 -0.0019734709740592497 0.8950592545232435 -117009422.40039994 -1319854917.1217802 -1356917939.912343 -69590875.55047682 -17570397.974650804 -17570397.974650804 79.2276529891578 0.32273968070333353 0.14350563715764314
42.38700000000002 1.2498501306353411 -0.03769447241787474 0.016693077591920756 -0.06822272890508428 0.8950443904784496 -0.001316191636307222 0.028961883695460183 -0.002054617889063019 0.8916910891002306 -61240224.26880842 -1273114508.571936 -1309478969.6563087 3276946.1286214367 -15783802.40950997 -15783802.40950997 79.1743257784649 0.33069909344761456 0.1486513479689994
42.58600000000002 1.259529869694521 -0.04080321534038351 0.018140288346826943 -0.06164865564012935 0.8917009324450997 -0.0012426749260699326 0.02605806985311871 -0.002135764804066788 0.8883229236772177 -16018334.047896894 -1231939062.855519 -1268214076.8440175 37873914.230772026 -15213168.96129855 -15213168.96129855 79.11667101530719 0.33867055380765193 0.15397152818038762
42.78500000000002 1.2692096087537008 -0.04391195826289228 0.01958749910173313 -0.05507458237517441 0.8883574744117497 -0.0011691582158326434 0.02315425601077724 -0.0022169117190705572 0.8849547582542047 21476680.550544113 -1197863574.73254 -1234302628.5597222 57304099.90095846 -15148763.75272381 -15148763.75272381 79.05508594984221 0.34662628906932036 0.15941323153310025
42.984000000000016 1.2788893478128807 -0.047020701185401054 0.021034709856639314 -0.04850050911021947 0.8850140163783998 -0.001095641505595354 0.020250442168435766 -0.0022980586340743264 0.8815865928311917 51276304.273496844 -1170896442.0030315 -1207667027.4489982 69865618.81720261 -15330675.66415044 -15330675.66415044 78.98985663886265 0.3545643194381606 0.16493826200091127
43.183000000000014 1.2832681780691502 -0.04874656822344712 0.021630623190821735 -0.040639353676570934 0.883397866557503 -0.0008271655267178848 0.016995750992675168 -0.0021757744291368 0.8802520220239509 70992334.91782321 -1088628060.3276439 -1112680889.8871744 209740841.137205 -4630298.446348106 -4630298.446348106 78.97223478495302 0.3587450206089829 0.167214353883555
43.38200000000001 1.2871835408891001 -0.050351528080338104 0.02215210614942183 -0.032665666468610514 0.8819327382196619 -0.0005416439287243526 0.0137103820172714 -0.0020357038967727314 0.879095251838854 89090593.73419043 -995101982.1154084 -1011197581.549016 296489797.16632164 1992903.9445266775 1992903.9445266775 78.957220523681 0.36291628979093693 0.16949555816512804
43.58100000000001 1.2910989037090501 -0.05195648793722908 0.022673589108021926 -0.024691979260650095 0.8804676098818209 -0.00025612233073082045 0.010425013041867631 -0.0018956333644086628 0.8779384816537569 127313007.36583425 -906771169.5979574 -919200135.8268405 344044986.71457475 5441837.876866665 5441837.876866665 78.9406628806799 0.36716680216450187 0.17195768998782496
43.78000000000001 1.295014266529 -0.05356144779412007 0.02319507206662202 -0.016718292052689668 0.87900248154398 2.9399267262711793e-05 0.0071396440664638645 -0.0017555628320445943 0.8767817114686599 180645731.3387914 -822202596.4895508 -833151631.0647016 372919577.9143439 7337402.898192484 7337402.898192484 78.92320875993995 0.3714298168051612 0.17456242999217753
43.979000000000006 1.29892962934895 -0.05516640765101105 0.023716555025222116 -0.008744604844729248 0.877537353206139 0.00031492086525624404 0.0038542750910600942 -0.0016154922996805257 0.8756249412835629 243545512.01506662 -739212852.8522571 -749748774.907999 392116350.14261806 8378885.203889541 8378885.203889541 78.90514748905464 0.37569038565266827 0.17727596161124778
44.178000000000004 1.29921177252216 -0.05689780211027424 0.024395595862378015 -0.006002770450287314 0.877472383558622 0.00026219015406954595 0.00285940038521821 -0.001563477281717599 0.875639936886258 294748437.42095566 -686759772.5551312 -702038575.4440484 395727552.06675005 -482524.5304021625 -482524.5304021625 78.91201422062693 0.3758255309791202 0.17729382394246954
44.377 1.29906527742244 -0.058644113011390324 0.02509322498857701 -0.0038781771181142137 0.877572601172323 0.00016955327157508086 0.0021347525314032 -0.0015218508356783995 0.875793174520097 307878151.21725684 -617726480.0284294 -638947568.2131135 369777286.93777424 -11885091.628488539 -11885091.628488539 78.92173738637118 0.3758255309791202 0.17729382394246954
44.576 1.29891878232272 -0.06039042391250641 0.025790854114776003 -0.0017535837859411147 0.877672818786024 7.691638908061577e-05 0.0014101046775881901 -0.0014802243896391998 0.875946412153936 322540705.8453076 -547441743.7436931 -574972161.8280507 343714526.4697155 -23419687.97218065 -23419687.97218065 78.93161777617314 0.3758255309791202 0.17729382394246954
44.775 1.2987722872229999 -0.06213673481362249 0.026488483240974997 0.00037100954623198526 0.877773036399725 -1.5720493413849375e-05 0.00068545682377318 -0.0014385979436000002 0.876099649787775 338734616.361757 -475907766.4045201 -510113914.08744335 317539909.3117217 -35086002.030557945 -35086002.030557945 78.94168342386722 0.3758255309791202 0.17729382394246954
44.974 1.29862579212328 -0.06388304571473857 0.027186112367173988 0.0024956028784050843 0.877873254013426 -0.00010835737590831447 -3.919103004182975e-05 -0.0013969714975608006 0.876252887421614 356459828.3250022 -403125731.14432657 -444373372.4358462 291254048.2379437 -46883703.744642206 -46883703.744642206 78.9519350367415 0.3758255309791202 0.17729382394246954
45.172999999999995 1.29865843172293 -0.0643344796137076 0.027423205794422097 0.0024722613223024993 0.877975947977672 -0.0001231451841825259 -0.00010603371947454825 -0.0014311931294520887 0.876170300491243 366004407.5974102 -379570898.7610022 -452930001.96689445 250612602.0505857 -51491225.76194152 -51491225.76194152 78.95302203987332 0.3758255309791202 0.17729382394246954
45.37199999999999 1.29871799330052 -0.0645913077204464 0.027591085764024394 0.002126108742528373 0.8780790141102081 -0.00012623313159126388 -7.401551715037476e-05 -0.0014768138944427584 0.876052271718852 374157657.8694128 -363553393.9503599 -472753600.814333 207835909.09764493 -55001316.29793387 -55001316.29793387 78.95270157907181 0.3758255309791202 0.17729382394246954
45.57099999999999 1.29877755487811 -0.0648481358271852 0.027758965733626694 0.001779956162754246 0.878182080242744 -0.00012932107900000186 -4.199731482620128e-05 -0.0015224346594334278 0.875934242946461 382273494.6513119 -347566904.4291349 -492604918.7492021 165066798.8389956 -58506007.4683537 -58506007.4683537 78.95237811836678 0.3758255309791202 0.17729382394246954
45.76999999999999 1.2988371164557 -0.065104963933924 0.02792684570322899 0.0014338035829801192 0.87828514637528 -0.00013240902640873983 -9.979112502027788e-06 -0.0015680554244240975 0.8758162141740701 390351902.695672 -331611574.61638254 -512484089.0380806 122305164.38724713 -62005255.201960996 -62005255.201960996 78.95204411890296 0.3758255309791202 0.17729382394246954
45.96899999999999 1.29889667803329 -0.0653617920406628 0.028094725672831288 0.0010876510032059926 0.8783882125078161 -0.0001354969738174778 2.203908982214569e-05 -0.001613676189414767 0.8756981854016791 398392900.06130445 -315687413.8481723 -532391106.6957193 79550995.46939474 -65499052.64903144 -65499052.64903144 78.95169882858607 0.3758255309791202 0.17729382394246954
46.167999999999985 1.29897094040384 -0.06607361107756314 0.02847761147298077 0.0011755468233459075 0.8783381338056561 0.00010041704710778693 -0.0001664825489292404 -0.0015858309898110431 0.875796634695176 421488904.1846754 -309308578.9279043 -500095900.8507711 23039456.243929252 -43377925.409561284 -43377925.409561284 78.95438078763739 0.3758255309791202 0.17729382394246954
46.36699999999998 1.29904791542071 -0.06686938677419574 0.028900170968052665 0.0013435349077557158 0.878259796235189 0.00038043262171375317 -0.00039569903930768494 -0.0015444295705500134 0.875935029346069 447489362.1209434 -304675616.3932432 -458141485.183499 -35992456.53305419 -16518966.249626203 -16518966.249626203 78.9576088240085 0.3758255309791202 0.17729382394246954
46.56599999999998 1.29912489043758 -0.06766516247082834 0.02932273046312456 0.0015115229921655242 0.878181458664722 0.0006604481963197194 -0.0006249155296861296 -0.001503028151288984 0.876073423996962 473622318.7267474 -300030097.7589778 -416159824.2393385 -95000696.88734865 10354661.139383722 10354661.139383722 78.96083481519409 0.3758255309791202 0.17729397411060238
46.76499999999998 1.29920186545445 -0.06846093816746092 0.029745289958196454 0.0016795110765753325 0.878103121094255 0.0009404637709256857 -0.0008541320200645741 -0.0014616267320279543 0.876211818647855 499879096.7767509 -295371988.05035144 -374142040.8952234 -153980452.20656082 37245268.33284834 37245268.33284834 78.96406114412936 0.3758255309791202 0.17729492006529513
46.96399999999998 1.29927884047132 -0.06925671386409352 0.03016784945326835 0.0018474991609851409 0.878024783523788 0.0012204793455316521 -0.0010833485104430186 -0.0014202253127669248 0.876350213298748 524784564.4368356 -289578994.66038215 -331768297.0081387 -211182537.181367 63588190.8140675 63588190.8140675 78.96738151174533 0.37584592450824145 0.17729623263695538
47.162999999999975 1.29960936489122 -0.06934340092157622 0.03016977910197421 0.0019253040937072129 0.877714448330095 0.0014665194702936605 -0.0010972855610599643 -0.0012189392262399621 0.8765221008230539 573160262.2650402 -329394874.5898703 -289218530.2636762 -209939630.84157988 101643330.22559358 101643330.22559358 78.96780854433297 0.3758784613993301 0.17729687442602643
47.36199999999997 1.29999588795228 -0.06927347944525881 0.030078808907310812 0.0019831912751362723 0.8773528743975301 0.0017050558147220281 -0.0010636762323430445 -0.0009823411886603736 0.876701385546396 624283089.2678834 -377326785.6428332 -246409697.3269518 -194335492.903642 141162997.08882767 141162997.08882767 78.96777918679686 0.3759388023516625 0.17730216530221518
47.56099999999997 1.30038241101334 -0.06920355796894141 0.029987838712647413 0.0020410784565653315 0.8769913004649651 0.001943592159150396 -0.0010300669036261247 -0.0007457431510807848 0.8768806702697379 668747487.9738585 -419347916.08286965 -203104470.83774766 -175190557.61339393 177533742.036561 177533742.036561 78.96757821540992 0.3760682385681336 0.17731175438727098
47.75999999999997 1.3007689340744 -0.06913363649262401 0.029896868517984013 0.002098965637994391 0.8766297265324001 0.0021821285035787635 -0.0009964575749092052 -0.0005091451135011962 0.87705995499308 699166131.0883417 -448458763.8681156 -158936878.63410452 -150775479.882198 206507917.0605751 206507917.0605751 78.96713666169055 0.3763346478052125 0.17733795588606954
47.95899999999997 1.30115545713546 -0.06906371501630662 0.029805898323320614 0.0021568528194234504 0.8762681525998351 0.0024206648480071314 -0.0009628482461922854 -0.0002725470759216075 0.8772392397164219 716134842.0254717 -464048338.85437614 -115093733.19827706 -123496920.81764933 227632170.73762515 227632170.73762515 78.96622679229083 0.37673218622166466 0.1773878726718045
48.157999999999966 1.30097108148568 -0.06903185790639041 0.029787085459316798 0.002012593506805694 0.876261429515264 0.0024170323143409916 -0.0008554541355975538 -0.00014146224626835987 0.87740733926379 696858256.6462044 -461979011.57000506 -82799706.41287889 -129717875.41619012 238899236.92150795 238899236.92150795 78.96828034878892 0.376743881783813 0.1773878726718045
48.356999999999964 1.3006385612337201 -0.0690098782586416 0.0297869969659272 0.0018158784583909258 0.876346787979856 0.002350558489523682 -0.000728913341097801 -3.7757426266911876e-05 0.877572536328785 659162294.8880458 -447180124.32565075 -52676335.01868187 -141112084.72060242 243093183.8720287 243093183.8720287 78.9710957452723 0.376743881783813 0.1773878726718045
48.55599999999996 1.30030604098176 -0.0689878986108928 0.0297869084725376 0.001619163409976158 0.876432146444448 0.002284084664706373 -0.0006023725465980482 6.594739373453612e-05 0.87773773339378 621444072.8689005 -432389047.06351113 -22564982.936308786 -152503682.23192546 247283315.3827391 247283315.3827391 78.9739025259296 0.376743881783813 0.1773878726718045
48.75499999999996 1.2999735207298 -0.068965918963144 0.029786819979147998 0.0014224483615613895 0.87651750490904 0.0022176108398890633 -0.0004758317520982955 0.00016965221373598408 0.877902930458775 583702671.7320119 -417606415.5233196 7533797.708125665 -163892818.12915683 251469569.85265526 251469569.85265526 78.97670157990117 0.376743881783813 0.1773878726718045
48.95399999999996 1.29964100047784 -0.0689439393153952 0.0297867314857584 0.0012257333131466216 0.876602863373632 0.002151137015071754 -0.0003492909575985427 0.000273357033737432 0.87806812752377 545915741.085016 -402778989.0814923 37588040.604945645 -175237359.21445954 255610216.0377701 255610216.0377701 78.97947527746301 0.3767445471075017 0.1773878726718045
49.152999999999956 1.2994905340782599 -0.0692784604283046 0.029934218461105656 0.0011618885769269353 0.876696489583068 0.0020336534614959893 -0.0003127683380548041 0.0002836338826234429 0.878092615329532 529693369.5492282 -384893516.1910725 43157892.04051905 -208529472.89599466 246134327.15081203 246134327.15081203 78.98079150099204 0.37675060483728023 0.1773878726718045
49.351999999999954 1.29939480282384 -0.06972016477644469 0.030126074531628754 0.0011379917777071256 0.876792601519712 0.0019008336496006706 -0.0003033100064063702 0.0002658212761413801 0.878074798390688 519440980.5245584 -364973107.15237063 40732374.08145932 -247177656.8979723 231822865.115028 231822865.115028 78.98139843689651 0.37677422534760335 0.1773878726718045
49.55099999999995 1.29929907156942 -0.07016186912458479 0.030317930602151853 0.0011140949784873158 0.876888713456356 0.0017680138377053518 -0.0002938516747579363 0.0002480086696593173 0.878056981451844 507959972.7339564 -343022064.1217601 37467398.63138984 -283164012.3334241 216306675.82847288 216306675.82847288 78.98193182033643 0.3768292438404156 0.1773878726718045
49.74999999999995 1.299203340315 -0.07060357347272489 0.03050978667267495 0.001090198179267506 0.8769848253929999 0.0016351940258100333 -0.00028439334310950237 0.00023019606317725445 0.878039164513 493793351.65832853 -317528958.3715614 33315586.652231935 -313453778.4408845 198438470.86407796 198438470.86407796 78.9826888231172 0.37694787641134514 0.1773878726718045
49.94899999999995 1.29910760906058 -0.07104527782086498 0.03070164274319805 0.0010663013800476962 0.877080937329644 0.0015023742139147144 -0.00027493501146106845 0.0002123834566951916 0.878021347574156 477840060.22804374 -289922296.03046805 28816627.136251293 -338823157.8138277 179233954.23187324 179233954.23187324 78.98380694169082 0.37711676911423336 0.1773885498051641
50.147999999999946 1.29921523285052 -0.07164983964572262 0.0310249957469963 0.0010438948876914458 0.877083829152604 0.0014772291981280767 -0.0002813621088995448 0.0001821144547586077 0.877964586793692 478382775.30638945 -267789405.64568576 16530002.32010597 -357634429.1814861 162029295.21825495 162029295.21825495 78.9836152252939 0.3774963883406763 0.1773925706746635
50.346999999999944 1.2993929316895299 -0.07231052127674652 0.031393661883207 0.001022001947024666 0.877054597828281 0.0014891883350546167 -0.00029326323933419367 0.00014755304628025724 0.877894406175913 483351802.5455317 -247770944.08550188 3045687.468993995 -371394673.4593185 146165559.67963722 146165559.67963722 78.98257419711109 0.37797154707420483 0.17739787703031018
50.54599999999994 1.29957063052854 -0.0729712029077704 0.031762328019417696 0.0010001090063578863 0.877025366503958 0.0015011474719811566 -0.0003051643697688426 0.00011299163780190678 0.877824225558134 487577905.6199502 -228671673.46386042 -8797885.180143232 -382926796.2612806 131502295.73655415 131502295.73655415 78.98156915400206 0.3784632597169482 0.17740607922285845
50.74499999999994 1.2997483293675498 -0.0736318845387943 0.032130994155628395 0.0009782160656911065 0.876996135179635 0.0015131066089076964 -0.0003170655002034915 7.843022932355631e-05 0.877754044940355 491343328.5755376 -210702452.955077 -19072160.788082115 -392728663.3417843 118040531.1866235 118040531.1866235 78.98060878951921 0.37896733343070477 0.17741625956914492
50.94399999999994 1.29992602820656 -0.07429256616981819 0.03249966029183909 0.0009563231250243267 0.8769669038553121 0.0015250657458342363 -0.0003289666306381403 4.386882084520585e-05 0.8776838643225761 494794328.7103629 -193900800.81336725 -27889922.467655636 -401193638.046083 105777716.70705728 105777716.70705728 78.97970133058679 0.3794805223557337 0.1774306091855619
51.14299999999994 1.30005293322392 -0.07462742709952183 0.03267638995739537 0.0009141730759626038 0.8768981165252141 0.0016229433242510483 -0.00035056358503375096 2.979313998791074e-05 0.877678683750765 499244927.4551534 -193465471.91813374 -27085055.53892029 -403612978.3620775 106829089.73665744 106829089.73665744 78.97874324325615 0.37977755335952523 0.17743843826289576
51.341999999999935 1.30015994695448 -0.07483469390842852 0.03277795569038757 0.0008640901732636884 0.876813838731316 0.0017544672853494168 -0.0003759575054560377 2.373984197523706e-05 0.87769895774241 504020501.9116564 -199217568.45394853 -22673583.48979869 -403712679.2608422 112920615.8494872 112920615.8494872 78.97782410815884 0.37998995618820336 0.17744439727610692
51.54099999999993 1.3002669606850399 -0.07504196071733522 0.03287952142337977 0.0008140072705647729 0.876729560937418 0.0018859912464477854 -0.00040135142587832445 1.768654396256338e-05 0.877719231734055 508542176.9157242 -204575321.83692944 -18417299.96577956 -403721097.21012664 118689018.31426825 118689018.31426825 78.97688754568436 0.3802041692414852 0.1774513475003242
51.73999999999993 1.3003739744156 -0.07524922752624193 0.03298108715637197 0.0007639243678658574 0.87664528314352 0.002017515207546154 -0.0004267453463006112 1.1633245949889698e-05 0.8777395057256999 512846105.3368993 -209590873.62744462 -14300955.366534509 -403674216.7601929 124159536.49223538 124159536.49223538 78.97594414008712 0.380419740082965 0.17745997792984763
51.93899999999993 1.3004809881461599 -0.07545649433514862 0.03308265288936416 0.0007138414651669419 0.876561005349622 0.002149039168644523 -0.00045213926672289795 5.579947937216019e-06 0.877759779717345 516969794.8920634 -214298100.2326387 -10327592.934330946 -403602840.65592885 129359634.4125222 129359634.4125222 78.9749901224193 0.38063642943804826 0.1774689823109556
52.13799999999993 1.3005826570152799 -0.07581001084854264 0.033252188921942726 0.0006187708366598361 0.87645904516612 0.0022446687171553906 -0.00039374365360691956 5.805712633682076e-05 0.8777941228944119 512950469.56477773 -217600354.88483775 -6543773.670736778 -405396888.70872074 133016161.87455828 133016161.87455828 78.97340681301085 0.3809973225594726 0.17748437127290398
52.336999999999925 1.30068196330072 -0.07622817397044204 0.03345176979709213 0.0005038143293534243 0.87634926885388 0.0023244318948848 -0.0002983106379848338 0.00013640647184624455 0.877834685059238 505721164.7782465 -220336646.8211178 -3241397.026424748 -407991354.5417764 135840816.36249378 135840816.36249378 78.97153351688215 0.381422403017029 0.1775040622959169
52.53599999999992 1.30078126958616 -0.07664633709234143 0.03365135067224152 0.0003888578220470124 0.87623949254164 0.0024041950726142094 -0.000202877622362748 0.00021475581735566832 0.877875247224064 498873158.0142091 -223081302.63308683 -391031.0137546826 -410544416.22314674 138455875.60014796 138455875.60014796 78.96963889345004 0.38184824041282966 0.1775260413680073
52.73499999999992 1.3008805758716 -0.07706450021424084 0.03385093154739092 0.0002739013147406005 0.8761297162294001 0.0024839582503436188 -0.00010744460674066221 0.0002931051628650921 0.87791580938889 492368355.64710486 -225835935.45204067 2045859.7418277068 -413059583.4656411 140885763.78668132 140885763.78668132 78.96772572918776 0.38227482555233866 0.17755056337434014
52.93399999999992 1.30097988215704 -0.07748266333614023 0.03405051242254031 0.00015894480743418858 0.8760199399171601 0.0025637214280730277 -1.2011591118576482e-05 0.0003714545083745159 0.877956371553716 486140245.0259355 -228580102.27979964 4115093.2683492824 -415534907.88101274 143152836.47201785 143152836.47201785 78.96579602722285 0.38270208996227895 0.17757991620534677
53.13299999999992 1.30121269670198 -0.07783090212463557 0.034199514774864846 0.0003287993430643139 0.875896721764942 0.002635845647489372 -7.18277137856561e-05 0.000424832446593904 0.877897504365848 501513531.23858976 -239024789.38713083 -8628986.096337449 -412237912.8723803 146401634.06995836 146401634.06995836 78.96322134433635 0.382941353313858 0.1776134860238102
53.331999999999915 1.30151176346592 -0.07814444161986267 0.03432341801059954 0.0006399886819564399 0.875766833225968 0.0027041791056375713 -0.0002086847622204335 0.0004658185586392666 0.8777892962961921 526888985.8055286 -252699912.7814576 -28531421.0637305 -405226347.4479099 149882326.0237147 149882326.0237147 78.96035306285215 0.3830964247969841 0.1776621425787835
53.53099999999991 1.3018108302298599 -0.07845798111508977 0.03444732124633424 0.0009511780208485658 0.875636944686994 0.0027725125637857702 -0.00034554181065521086 0.0005068046706846292 0.877681088226536 550611542.9962722 -265383592.71214277 -47723106.17460675 -397538274.6970299 152913900.78769362 152913900.78769362 78.9574870965106 0.38326207577275934 0.177721863291777
53.72999999999991 1.3021098969937999 -0.07877152061031686 0.034571224482068945 0.0012623673597406918 0.87550705614802 0.0028408460219339696 -0.00048239885908998826 0.0005477907827299918 0.8775728801568801 572708431.7277915 -277116417.8750867 -66190672.599950366 -389339127.43135256 155513759.39143667 155513759.39143667 78.9545819260125 0.38343726060646127 0.17779255048084108
53.92899999999991 1.3024089637577398 -0.07908506010554396 0.03469512771780364 0.0015735566986328177 0.875377167609046 0.002909179480082169 -0.0006192559075247656 0.0005887768947753543 0.8774646720872241 593266084.2070009 -287986202.03116286 -83933635.13810308 -380741660.64725524 157730130.44246405 157730130.44246405 78.95165902185704 0.3836215445601737 0.1778680789532682
54.12799999999991 1.30229880741896 -0.07928138421803835 0.034812990436047145 0.0018562579464963564 0.8753916436920239 0.002946288823119991 -0.0008367099069353184 0.0005761612625947076 0.877496884813984 580003868.9435185 -283118488.4678186 -77856169.25574787 -381664366.94944674 158148027.09280968 158148027.09280968 78.9523855317023 0.3836215445601737 0.1778680789532682
54.326999999999906 1.30196166014039 -0.07941269042292304 0.03492750255474475 0.0021231572063674436 0.875486197026241 0.002966078539807491 -0.0010988700275903359 0.000533813412913637 0.877606987201256 540630180.7981948 -263587093.36649248 -57172359.408167265 -379055156.9312245 154207206.60640246 154207206.60640246 78.95509673392255 0.3836215445601737 0.1778680789532682
54.525999999999904 1.30162451286182 -0.07954399662780774 0.03504201467344235 0.002390056466238531 0.8755807503604579 0.0029858682564949906 -0.0013610301482453535 0.0004914655632325664 0.877717089588528 501257136.94435143 -244048395.4601678 -36481274.980367936 -376456961.49651146 150261274.36699343 150261274.36699343 78.95780446561766 0.3836215445601737 0.1778680789532682
54.7249999999999 1.3012873655832502 -0.07967530283269243 0.035156526792139944 0.0026569557261096185 0.875675303694675 0.0030056579731824904 -0.0016231902689003708 0.00044911771355149585 0.8778271919758 461884387.6584634 -224502520.04216716 -15783045.663172685 -373869775.6965302 146310186.2294742 146310186.2294742 78.96050962219007 0.3836215445601737 0.1778680789532682
54.9239999999999 1.3009502183046802 -0.07980660903757714 0.03527103891083754 0.002923854985980706 0.875769857028892 0.0030254476898699902 -0.0018853503895553884 0.00040676986387042525 0.877937294363072 422511913.5595349 -204949484.3135074 4922314.4475476425 -371293598.5763463 142353937.8779949 142353937.8779949 78.96321230414591 0.3836215445601737 0.1778680789532682
55.1229999999999 1.30084841592725 -0.07987501457756338 0.03526904910197084 0.002972798471780834 0.875755346562491 0.0030268883032225752 -0.0019398802711967078 0.0004558303975302529 0.878009882299662 409740984.9412766 -207826626.10859615 17061280.146381702 -374919809.4302686 146392628.60399118 146392628.60399118 78.96376851352382 0.3836215445601737 0.1778680789532682
55.321999999999896 1.3008920299114999 -0.07990455466606758 0.03519507436225124 0.002887070097179105 0.8756734470810741 0.0030169912592299853 -0.0018661182978374185 0.0005613709078886429 0.878059290575668 413407660.20516735 -224569128.03507465 23903718.177989323 -382369841.9580608 155373097.1620989 155373097.1620989 78.96296810924878 0.3836215445601737 0.1778680789532682
55.520999999999894 1.30093564389575 -0.07993409475457178 0.03512109962253164 0.0028013417225773757 0.8755915475996571 0.0030070942152373953 -0.0017923563244781292 0.0006669114182470328 0.878108698851674 417073556.6423986 -241314477.35843876 30746938.574292094 -389820608.7307207 164351437.6395401 164351437.6395401 78.96218595356211 0.3836215445601737 0.1778680789532682
55.71999999999989 1.30097925788 -0.07996363484307598 0.035047124882812045 0.0027156133479756465 0.8755096481182401 0.0029971971712448053 -0.0017185943511188399 0.0007724519286054228 0.8781581071276799 420737038.8642412 -258051083.99525824 37580744.52297928 -397248710.7261724 173316704.57208845 173316704.57208845 78.96140218094149 0.38362176407056786 0.1778680789532682
55.91899999999989 1.3010228718642498 -0.07999317493158017 0.03497315014309244 0.0026298849733739174 0.875427748636823 0.0029873001272522153 -0.0016448323777595506 0.0008779924389638127 0.8782075154036859 424374198.2359497 -274651702.3660987 44301174.03601437 -404449500.29048604 182174205.82439277 182174205.82439277 78.96060576515656 0.38362437097381386 0.1778680789532682
56.11799999999989 1.3012587237631597 -0.07992437607074568 0.03491188198262283 0.00347309924771485 0.8751574024946063 0.003082188342323066 -0.0019437897314994088 0.001064695724628024 0.8782696169433499 453739660.451212 -312162123.5590911 57673543.23024713 -346952448.677462 203418538.21332508 203418538.21332508 78.95917297252726 0.38362437097381386 0.1778685516835397
56.31699999999989 1.3016265355865397 -0.07978807335485648 0.03485933613502823 0.004953977543789075 0.8747576988987892 0.003249005421666445 -0.0024985967928248635 0.0013071124407989018 0.8783404316555249 500529679.83578527 -363930663.0265224 75449551.99979131 -244809311.34456676 233049306.51814756 233049306.51814756 78.95724505747908 0.38362437097381386 0.1778718951294866
56.515999999999885 1.3019943474099198 -0.07965177063896728 0.03480679028743363 0.0064348558398633 0.8743579953029722 0.0034158225010098233 -0.003053403854150318 0.0015495291569697794 0.8784112463677 546866322.4040924 -415548763.8724615 93148076.90077056 -142598344.05253452 262525147.17513362 262525147.17513362 78.95528735055632 0.38362437097381386 0.17788987860184838
56.71499999999988 1.3023621592332997 -0.07951546792307808 0.03475424443983903 0.007915734135937526 0.8739582917071552 0.0035826395803532016 -0.0036082109154757726 0.001791945873140657 0.8784820610798749 591440781.083888 -464840131.4016209 109818457.84679246 -40604037.054295905 290331151.6368617 290331151.6368617 78.95295879122332 0.38364500594425605 0.1779353352688231
56.91399999999988 1.3027299710566798 -0.07937916520718889 0.03470169859224443 0.009396612432011751 0.8735585881113382 0.0037494566596965803 -0.004163017976801227 0.0020343625893115345 0.87855287579205 623125409.619313 -494339241.0273624 119080289.00658372 57722531.99236322 305849830.5742345 305849830.5742345 78.9490421807373 0.38384683558500343 0.178016876747977
57.11299999999988 1.3032085168797596 -0.07898776129343146 0.03451213216726308 0.010235347234295786 0.8729467834107705 0.004202466068802841 -0.004511266865689453 0.002518567597292303 0.8788073357329198 619142777.8582704 -494371388.86781347 131571027.47542492 120651103.5531473 320257664.30822694 320257664.30822694 78.94140417291095 0.3847610049435482 0.17822543905522364
57.31199999999988 1.3037713381362397 -0.07840220956536677 0.034218284594889785 0.010585371059003782 0.8721735566304805 0.004873285569587585 -0.004702312189713562 0.0031867884733766264 0.8792015610690798 596787287.9081609 -483209937.3012955 148247718.90928626 152944670.80844384 335595900.42018896 335595900.42018896 78.93339031502538 0.3861493330626118 0.17858231933706972
57.510999999999875 1.3043341593927196 -0.07781665783730207 0.03392443702251648 0.01093539488371178 0.8714003298501904 0.005544105070372328 -0.00489335751373767 0.00385500934946095 0.8795957864052397 576424997.3491778 -472219824.6557203 161763627.9392744 177628117.11744764 346085050.18462497 346085050.18462497 78.92610952472978 0.3875799500375639 0.17900455916677915
57.70999999999987 1.3048969806491997 -0.07723110610923738 0.03363058945014319 0.011285418708419776 0.8706271030699004 0.0062149245711570714 -0.005084402837761778 0.004523230225545273 0.8799900117413998 558871381.0575973 -463231547.1213558 173116427.97750548 196663569.29902405 354079691.35574645 354079691.35574645 78.91932945708926 0.38902791974194667 0.17948171999120446
57.90899999999987 1.3054598019056798 -0.07664555438117268 0.03333674187776989 0.011635442533127774 0.8698538762896105 0.006885744071941815 -0.005275448161785886 0.005191451101629597 0.8803842370775598 543961409.9952999 -456547699.17291975 182757407.81259272 211613990.10974234 360555628.71492636 360555628.71492636 78.91272353798428 0.39048542956728866 0.17999502066861392
58.10799999999987 1.3059968783532798 -0.07429375542155692 0.03223559386873197 0.009855783923176991 0.8693915765104321 0.00726710836709371 -0.004502082370974924 0.005596996905558998 0.8806173450311919 532693053.4686908 -447067917.0298288 169426640.92635784 253286565.74427682 349291510.2964694 349291510.2964694 78.90677079193988 0.391724415501161 0.18044559532732507
58.30699999999987 1.3065122624156198 -0.07045372962794516 0.03045422049176189 0.006281670669203447 0.8691912615192281 0.007404579850091358 -0.0029161109185878286 0.005781214639431357 0.8807146966717679 524216289.65280336 -426556986.9317848 140306835.49764523 310620378.7685879 320940607.46222866 320940607.46222866 78.90182121082185 0.3928582155745058 0.1808638907234528
58.505999999999865 1.3070276464779598 -0.0666137038343334 0.028672847114791806 0.002707557415229902 0.8689909465280241 0.007542051333089007 -0.0013301394662007344 0.005965432373303715 0.8808120483123439 518380671.0126867 -402214152.80158 119166142.0279337 353058624.1064444 294972441.4943606 294972441.4943606 78.89751959297655 0.39406496644962424 0.18132476505195314
58.70499999999986 1.3075430305402997 -0.06277367804072163 0.026891473737821723 -0.0008665558387436437 0.8687906315368201 0.007679522816086656 0.00025583198618636064 0.006149650107176073 0.88090939995292 516922189.6596162 -375990210.8418263 106240504.43560168 384744209.8486983 272534178.1353028 272534178.1353028 78.89395727661591 0.3953157098046719 0.1818170597231006
58.90399999999986 1.3080584146026397 -0.05893365224710988 0.02511010036085164 -0.004440669092717189 0.8685903165456161 0.007816994299084305 0.0018418034385734548 0.006333867841048431 0.881006751593496 520644774.7566593 -348366280.7791096 101216128.95484728 408795699.51272565 253698954.8205215 253698954.8205215 78.89113670798406 0.3965931550109231 0.18233527951697598
59.10299999999986 1.3071200755623917 -0.05582329871282462 0.023690936118892465 -0.007178949730666156 0.8695086519136077 0.007243388512556104 0.003080348598186104 0.005742239130079289 0.8808291838465713 411201475.61714345 -201942274.24767756 65019065.68222771 492493979.34590936 155991764.8924194 155991764.8924194 78.9004345367002 0.39685044675585834 0.1823361459234855
59.30199999999986 1.3048268101352616 -0.05339302806102034 0.022609364857138575 -0.009138201910958956 0.8714696128591046 0.006007031096176706 0.003995078960648845 0.004427491402556815 0.8803953805540143 163568466.61624685 90191602.11280422 -13656651.284421818 503913396.08729357 -43184526.22950736 -43184526.22950736 78.9210927218028 0.39766846913291415 0.1823361459234855
59.500999999999856 1.3025335447081317 -0.05096275740921606 0.021527793595384686 -0.01109745409125176 0.8734305738046017 0.004770673679797308 0.004909809323111586 0.003112743675034341 0.8799615772614573 7664458.548768685 261410189.5685909 -64598846.93991096 427538801.10670155 -162824506.57100144 -162824506.57100144 78.94063056777631 0.3998172700360164 0.1823361459234855
59.699999999999854 1.3002402792810017 -0.048532486757411786 0.020446222333630797 -0.013056706271544559 0.8753915347500986 0.00353431626341791 0.0058245396855743274 0.0017979959475118669 0.8795277739689003 -82931930.26138324 345349519.11609894 -94766709.70080337 354025022.52793217 -223941965.02630478 -223941965.02630478 78.96138997773471 0.4025784976700115 0.1823361459234855
59.89899999999985 1.2979470138538716 -0.04610221610560751 0.019364651071876907 -0.01501595845183736 0.8773524956955956 0.0022979588470385115 0.006739270048037069 0.0004832482199893925 0.8790939706763433 -142865064.37663072 388987226.72716004 -116361962.35369238 304803882.4673522 -258562879.2116105 -258562879.2116105 78.98229920458998 0.4055499159677941 0.1823361459234855
60.09799999999985 1.296063290072961 -0.04555758408750434 0.01913581555023531 -0.01454224330772753 0.8789217830879131 0.0013016960679997653 0.006511982910261986 -0.000551952310837442 0.8787221487111382 -182803093.11201805 415312184.4605212 -129962134.85903254 275204976.738092 -277718858.17114246 -277718858.17114246 78.99991295778922 0.40807098228863253 0.18233661555446826
60.29699999999985 1.2946016449274411 -0.04695631433475203 0.019785819924018202 -0.0115610822476442 0.8800874069203202 0.0005528777621393727 0.005107718552850513 -0.0012990480777219878 0.8784142054608571 -210160425.57075652 436151917.6162044 -137250322.67334422 255224100.28950328 -288944843.25975144 -288944843.25975144 79.01419329312705 0.41007409096174946 0.18233701965620666
60.495999999999846 1.293139999781921 -0.04835504458199972 0.020435824297801098 -0.008579921187560869 0.8812530307527271 -0.00019594054372102016 0.0037034541954390396 -0.0020461438446065334 0.8781062622105762 -232962775.8998877 453367551.4855696 -143325110.80209556 242052912.10622472 -298685963.8178911 -298685963.8178911 79.02844989317376 0.4120916407703236 0.18233971695384965
60.694999999999844 1.2916783546364012 -0.04975377482924741 0.02108582867158399 -0.0055987601274775384 0.8824186545851341 -0.0009447588495814128 0.0022991898380275667 -0.002793239611491079 0.8777983189602951 -252643999.90720117 468625404.19949543 -148429328.8705365 233673807.09184173 -307636788.4121828 -307636788.4121828 79.04264473825737 0.41411830997158006 0.18234393417467223
60.89399999999984 1.2902167094908812 -0.05115250507649509 0.021735833045366883 -0.0026175990673942065 0.8835842784175411 -0.0016935771554418058 0.0008949254806160933 -0.003540335378375625 0.8774903757100142 -270066590.3337954 482861913.8692212 -152648309.50411907 228527705.58619434 -316097921.9306099 -316097921.9306099 79.05668043198057 0.4161516968759548 0.18235661157750213
61.09299999999984 1.2902486873448387 -0.053425477227299976 0.022676036478591278 -0.0012720541000109933 0.8837311204883358 -0.001834757568064162 0.0001822319976310213 -0.0036264568290454 0.8772380820965892 -260308992.97966677 500356067.15802217 -192978180.23989776 110200234.51595257 -331517868.4116645 -331517868.4116645 79.05617103794371 0.4162918924135611 0.18235661157750213
61.29199999999984 1.2919830742089586 -0.05669489713915174 0.023947004431180165 -0.0017907597329156182 0.8827167704437409 -0.0012833614572086843 0.00025778058657534655 -0.0029592097042421585 0.8770492171015161 -60225427.350920446 314937101.97665066 -231609842.1030003 -199840895.38093057 -224230425.05806017 -224230425.05806017 79.04031188173029 0.4162918924135611 0.18235661157750213
61.490999999999836 1.2937174610730786 -0.05996431705100351 0.025217972383769053 -0.002309465365820243 0.8817024203991458 -0.0007319653463532068 0.0003333291755196718 -0.0022919625794389172 0.8768603521064431 128923776.75860576 103212687.14871092 -236628344.17401683 -393289602.647461 -102399827.23923537 -102399827.23923537 79.02364598668154 0.4173677976127652 0.18235661157750213
61.689999999999834 1.2954518479371986 -0.06323373696285528 0.02648894033635794 -0.002828170998724868 0.8806880703545509 -0.00018056923549772896 0.0004088777644639971 -0.0016247154546356756 0.8766714871113701 240828132.41768423 -61538621.808005035 -215095635.14008993 -423953890.31418467 -7167996.487516209 -7167996.487516209 79.00582173538892 0.41996330646596064 0.18235661157750213
61.88899999999983 1.2971862348013186 -0.06650315687470704 0.027759908288946828 -0.003346876631629493 0.8796737203099558 0.0003708268753577484 0.00048442635340832234 -0.0009574683298324339 0.8764826221162971 301250601.21403015 -170442976.68918788 -201626738.42633003 -428420903.54243577 52328840.94627035 52328840.94627035 78.986342246414 0.4229265464740598 0.18235661157750213
62.08799999999983 1.29815365662 -0.0683268031572 0.028468840162 -0.00363620489923 0.879107927069 0.000678389530157 0.000526566521111 -0.000585285260218 0.87637727531 323533601.68554425 -217379964.10440564 -198100563.15386084 -429133624.3090009 76520726.05104019 76520726.05104019 78.9751717960728 0.4246423580222167 0.18235661157750213
62.28699999999983 1.29815365662 -0.0683268031572 0.028468840162 -0.00363620489923 0.879107927069 0.000678389530157 0.000526566521111 -0.000585285260218 0.87637727531 323505759.137467 -217360278.07865784 -198092459.62813008 -429078879.9073094 76509734.6965227 76509734.6965227 78.9751703306555 0.4246428987579419 0.18235661157750213
62.48599999999983 1.29815365662 -0.0683268031572 0.028468840162 -0.00363620489923 0.879107927069 0.000678389530157 0.000526566521111 -0.000585285260218 0.87637727531 323471220.92426133 -217336035.03579512 -198082208.87125677 -429010845.7643495 76495700.76123959 76495700.76123959 78.97516921407922 0.42464357379987405 0.18235661157750213
62.684999999999825 1.29815365662 -0.0683268031572 0.028468840162 -0.00363620489923 0.879107927069 0.000678389530157 0.000526566521111 -0.000585285260218 0.87637727531 323441192.6433164 -217314935.64841163 -198073318.33205122 -428951518.3255688 76483458.43995723 76483458.43995723 78.97516732689455 0.424644162362987 0.18235661157750213
62.88399999999982 1.29815365662 -0.0683268031572 0.028468840162 -0.00363620489923 0.879107927069 0.000678389530157 0.000526566521111 -0.000585285260218 0.87637727531 323414620.96651787 -217296305.4614362 -198065410.03954774 -428898852.55827826 76472568.61625105 76472568.61625105 78.97516497561449 0.4246446849387673 0.18235661157750213
63.08299999999982 1.29816018402718 -0.0683268268715616 0.0284688751859499 -0.0036346018658708133 0.879108495676353 0.000677914638205178 0.000527482789572978 -0.0005854181833900827 0.876376750329273 324751450.24955195 -216566678.67565733 -197556842.6333987 -428714013.6039454 76407336.91472334 76407336.91472334 78.97526351927287 0.42464529694214626 0.18235661157750213
63.28199999999982 1.2981758340757201 -0.0683268837288864 0.0284689591590346 -0.0036307584485397435 0.879109858963862 0.000676776041838759 0.000529679626005918 -0.0005857368787062817 0.876375491640542 327986085.62277967 -214838494.85976273 -196345886.24320748 -428330887.23537844 76262795.00643611 76262795.00643611 78.97550353310545 0.4246461734710841 0.18235661157750213
63.48099999999982 1.29819148412426 -0.0683269405862112 0.0284690431321193 -0.0036269150312086738 0.879111222251371 0.00067563744547234 0.000531876462438858 -0.0005860555740224807 0.8763742329518109 331217855.14244145 -213108849.2853552 -195133749.8219583 -427943842.63975203 76117516.52212831 76117516.52212831 78.97574409061096 0.42464709302819553 0.18235661157750213
63.679999999999815 1.2982071341728 -0.068326997443536 0.028469127105204 -0.0036230716138776035 0.87911258553888 0.000674498849105921 0.000534073298871798 -0.0005863742693386797 0.87637297426308 334445282.3687645 -211376820.76235545 -193919803.27837774 -427549895.98950356 75971060.58502118 75971060.58502118 78.97598529185466 0.4246480840480686 0.18235661157750213
63.87899999999981 1.29822278422134 -0.06832705430086079 0.0284692110782887 -0.0036192281965465338 0.879113948826389 0.0006733602527395021 0.0005362701353047379 -0.0005866929646548787 0.876371715574349 337670265.34552073 -209643380.28344607 -192704942.9930153 -427152623.0931004 75824175.70726812 75824175.70726812 78.97622698058863 0.42464911087986085 0.18235661157750213
64.07799999999982 1.29822748858604 -0.068328749604642 0.028469960689629797 -0.0036119420640879315 0.8791159158044141 0.000672668480356584 0.0005381393216888228 -0.000586890150920168 0.876371186866558 338873047.87779784 -208579322.31587967 -192150924.03981212 -426829900.43800557 75737841.72736587 75737841.72736587 78.97635635874815 0.4246492617093429 0.18235661157750213
64.27699999999982 1.29821521310786 -0.068332986601003 0.028471742893650696 -0.003599315309444292 0.879118819276701 0.000672669857999356 0.0005395002304330147 -0.000586898842375712 0.876371790565097 336873685.9455017 -208510938.38160115 -192599303.49458495 -426503602.5796575 75720273.15073977 75720273.15073977 78.97631017955703 0.4246492617093429 0.18235661157750213
64.47599999999981 1.29820293762968 -0.068337223597364 0.0284735250976716 -0.003586688554800652 0.879121722748988 0.000672671235642128 0.0005408611391772068 -0.000586907533831256 0.876372394263636 334874435.1296211 -208442506.46145022 -193047637.06885502 -426177312.63323957 75702714.6751701 75702714.6751701 78.97626196949633 0.4246492617093429 0.18235661157750213
64.67499999999981 1.2981906621515 -0.06834146059372499 0.0284753073016925 -0.0035740618001570117 0.879124626221275 0.0006726726132849 0.0005422220479213987 -0.0005869162252868 0.876372997962175 332875227.8368912 -208374045.76731536 -193495947.74666998 -425851035.33239764 75685162.2962508 75685162.2962508 78.97621306739023 0.4246492617093429 0.18235661157750213
64.87399999999981 1.29817838667332 -0.068345697590086 0.0284770895057134 -0.003561435045513372 0.879127529693562 0.000672673990927672 0.0005435829566655906 -0.000586924916742344 0.8763736016607141 330876035.88667995 -208305564.51205993 -193944246.08187816 -425524772.58949625 75667613.59172045 75667613.59172045 78.97616394226971 0.4246492617093429 0.18235661157750213
65.07299999999981 1.29818154731962 -0.06834662672496401 0.028479244498885396 -0.0035524771386185425 0.879127740871099 0.0006725663496320493 0.0005468285356894937 -0.0005869365341475341 0.876370988121941 331270684.1736343 -208173478.63736716 -194398694.64711487 -425057905.87834454 75655101.52132493 75655101.52132493 78.97613550379974 0.4246492617093429 0.18235661157750213
65.2719999999998 1.29821135113968 -0.068341846400296 0.028482042936345597 -0.0035498517634545623 0.879123305074136 0.0006722705386619362 0.0005533271072509936 -0.000586953201821976 0.876362821543424 335796985.61710286 -207931684.01204127 -194863829.00758404 -424348334.95551276 75651271.5244902 75651271.5244902 78.97614520548044 0.4246492617093429 0.18235661157750213
65.4709999999998 1.29824115495974 -0.068337066075628 0.0284848413738058 -0.0035472263882905825 0.8791188692771731 0.0006719747276918232 0.0005598256788124936 -0.000586969869496418 0.876354654964907 340322977.95089185 -207689968.65806255 -195329057.4937393 -423638803.0234014 75647422.3764177 75647422.3764177 78.97615990058573 0.4246492617093429 0.18235661157750213
65.6699999999998 1.2982709587798 -0.06833228575096001 0.028487639811265997 -0.0035446010131266023 0.87911443348021 0.0006716789167217102 0.0005663242503739936 -0.0005869865371708599 0.8763464883863901 344841143.414978 -207444304.3016652 -195790834.1219237 -422917508.0390869 75640595.93259478 75640595.93259478 78.97617666611019 0.42464938867144403 0.18235661157750213
65.8689999999998 1.29830076259986 -0.06832750542629201 0.0284904382487262 -0.0035419756379626226 0.879109997683247 0.0006713831057515973 0.0005728228219354935 -0.000587003204845302 0.8763383218078731 349306606.68750286 -207168513.63277423 -196230514.4601708 -422110997.19310576 75615654.96277478 75615654.96277478 78.97619403469115 0.42465040615698174 0.18235661157750213
66.0679999999998 1.29832007246068 -0.0683235595028932 0.028494816502591995 -0.0035356110807985334 0.8791083305504841 0.000670834387965237 0.0005778671729689297 -0.0005868247843722166 0.87633087795532 352090800.2962863 -206824420.3597033 -196984279.34295788 -421212945.4924567 75574197.42829119 75574197.42829119 78.97618050955886 0.42465131765932207 0.18235661157750213
66.2669999999998 1.29831916601767 -0.0683212210289983 0.028502238226297993 -0.0035220430994871437 0.879111997167871 0.00066979845263581 0.0005801100109262307 -0.0005862705323208046 0.87632482641308 351680608.34865487 -206371333.77165008 -198364530.8918686 -420203767.38331217 75517053.88075463 75517053.88075463 78.9761058719006 0.42465131765932207 0.18235661157750213
66.4659999999998 1.29831825957466 -0.0683188825551034 0.028509659950003992 -0.003508475118175754 0.8791156637852581 0.0006687625173063831 0.0005823528488835317 -0.0005857162802693926 0.87631877487084 351270501.8036332 -205918277.6240559 -199744788.5015991 -419194593.42186797 75459923.45662418 75459923.45662418 78.97602730530804 0.42465131765932207 0.18235661157750213
66.6649999999998 1.2983173531316499 -0.0683165440812085 0.028517081673709994 -0.0034949071368643642 0.879119330402645 0.0006677265819769561 0.0005845956868408326 -0.0005851620282179805 0.8763127233286 350860419.6040435 -205465239.7041397 -201125061.80919018 -418185428.1723839 75402798.06358758 75402798.06358758 78.97594722613044 0.42465131765932207 0.18235661157750213
66.86399999999979 1.2983164466886399 -0.0683142056073136 0.028524503397415992 -0.003481339155552974 0.879122997020032 0.0006666906466475291 0.0005868385247981337 -0.0005846077761665686 0.87630667178636 350450334.2438802 -205012216.71975768 -202505356.5797721 -417176272.81600356 75345673.79444528 75345673.79444528 78.97586653528263 0.42465131765932207 0.18235661157750213
67.06299999999979 1.29833218623352 -0.06830470020912342 0.028534169758302783 -0.0034730446435299266 0.879123603820785 0.0006650171118159073 0.0005923556312408696 -0.0005836962999951568 0.876297358598292 352616238.2412033 -204533599.5605345 -203865797.55136466 -415779689.952357 75287904.26709923 75287904.26709923 78.97580386542343 0.42465131765932207 0.18235661157750213
67.26199999999979 1.29838385997448 -0.06827972335531163 0.028548681685167186 -0.0034761341287008166 0.87911760530309 0.0006619671717096993 0.0006049409998109285 -0.0005820136733424718 0.8762810043970081 360342668.68068475 -203999876.54660758 -205183544.64760035 -413546821.1528156 75228715.62164757 75228715.62164757 78.97578322470157 0.42465131765932207 0.18235661157750213
67.46099999999979 1.2984355337154398 -0.06825474650149982 0.028563193612031586 -0.0034792236138717065 0.879111606785395 0.0006589172316034913 0.0006175263683809874 -0.0005803310466897868 0.8762646501957241 368032191.9114975 -203451388.3028347 -206480324.46944547 -411263916.49222535 75157693.0765689 75157693.0765689 78.97577010146279 0.4246518736516448 0.18235661157750213
67.65999999999978 1.2984872074564 -0.06822976964768802 0.028577705538895985 -0.0034823130990425965 0.8791056082677 0.0006558672914972833 0.0006301117369510462 -0.0005786484200371019 0.87624829599444 375636576.46091336 -202860392.11603615 -207735603.90355426 -408864457.19203377 75057082.4274929 75057082.4274929 78.9757596687903 0.42465371392848095 0.18235661157750213
67.85899999999978 1.29853888119736 -0.06820479279387623 0.028592217465760385 -0.0034854025842134865 0.879099609750005 0.0006528173513910754 0.0006426971055211051 -0.0005769657933844168 0.876231941793156 383147174.10881346 -202216868.02684057 -208950791.55388552 -406332559.13930595 74923545.96037476 74923545.96037476 78.97575074167194 0.42465701174438986 0.18235661157750213
68.05799999999978 1.29858661232684 -0.06817854421282583 0.028609483153808575 -0.003490854459271328 0.879096043814312 0.0006478303164783728 0.0006518222708708232 -0.0005736395956922101 0.876213792307432 389850258.0915361 -201406507.64439616 -210713234.9664029 -403758599.282779 74733265.79550302 74733265.79550302 78.97571309725954 0.4246613122152842 0.18235661157750213
68.25699999999978 1.29862475883186 -0.06814920401900573 0.028633443330251872 -0.0035020493856060975 0.879098391569348 0.0006381341372946838 0.0006525355628744952 -0.0005663178201280411 0.876191278423328 394798080.0573746 -200303205.54262653 -213897341.27801132 -401364718.3472695 74469347.62031828 74469347.62031828 78.97555672323114 0.4246648887308925 0.18235661157750213
68.45599999999978 1.29866290533688 -0.06811986382518563 0.028657403506695173 -0.0035132443119408672 0.879100739324384 0.000628437958110995 0.0006532488548781672 -0.0005589960445638722 0.876168764539224 399707193.6594207 -199180553.27714393 -217062358.29059124 -398921072.982155 74193727.64721058 74193727.64721058 78.97540101442716 0.42466903589070887 0.18235661157750213
68.65499999999977 1.2987010518419 -0.06809052363136553 0.028681363683138474 -0.0035244392382756374 0.87910308707942 0.000618741778927306 0.0006539621468818392 -0.0005516742689997033 0.87614625065512 404555420.9338582 -198027449.97884488 -220197559.85690132 -396403784.7989534 73902579.62253906 73902579.62253906 78.97525006357805 0.42467404064470515 0.18235661157750213
68.85399999999977 1.2987391983469199 -0.06806118343754543 0.02870532385958177 -0.003535634164610407 0.879105434834456 0.0006090455997436172 0.0006546754388855112 -0.0005443524934355344 0.876123736771016 409402457.96214515 -196875325.23882142 -223330706.6166628 -393888192.9216017 73611127.98046204 73611127.98046204 78.97508641267002 0.4246790365639683 0.18235661157750213
69.05299999999977 1.29879160937264 -0.06801330992771201 0.02873653535564924 -0.0035633123580645753 0.8791039011470001 0.0005967500977816745 0.0006571205761760797 -0.0005356521223612515 0.876101076917969 416367490.4209643 -195814913.31664786 -225776887.1628731 -390429755.62377185 73193846.33752218 73193846.33752218 78.9749660589125 0.42468681594234464 0.18235661157750213
69.25199999999977 1.29888331511576 -0.06791438237753972 0.02878772218502114 -0.0036363972873573545 0.879091675184 0.0005772941972229908 0.0006643364570871836 -0.0005231541108251226 0.876078014961796 429210997.93587834 -195023390.22011065 -226355132.06037897 -384445925.8348624 72442956.50362012 72442956.50362012 78.97494727944961 0.42470153483229434 0.18235661157750213
69.45099999999977 1.29897502085888 -0.06781545482736742 0.028838909014393038 -0.003709482216650134 0.879079449221 0.0005578382966643069 0.0006715523379982875 -0.0005106560992889938 0.876054953005623 441906153.03920996 -194148697.70443738 -226865025.42059016 -378325843.1058155 71660116.34906551 71660116.34906551 78.97491672003002 0.42471805728017303 0.18235661157750213
69.64999999999976 1.299066726602 -0.06771652727719511 0.02889009584376494 -0.0037825671459429133 0.879067223258 0.000538382396105623 0.0006787682189093914 -0.0004981580877528648 0.87603189104945 454466073.31747055 -193201972.36634514 -227308516.57232094 -372098624.2269829 70849144.5067005 70849144.5067005 78.97487944328782 0.42473611572464776 0.18235661157750213
69.84899999999976 1.29915843234512 -0.06761759972702282 0.02894128267313684 -0.0038556520752356925 0.879054997295 0.0005189264955469393 0.0006859840998204953 -0.00048566007621673595 0.876008829093277 466874822.4825805 -192174922.6594845 -227677882.33215263 -365754080.1347019 70006974.22112066 70006974.22112066 78.97483836443612 0.424755872407565 0.18235661157750213
70.04799999999976 1.2992543748941598 -0.06751629301627134 0.028994789932913528 -0.003955411544054899 0.879044043016592 0.0004920753384119244 0.0006791787797848853 -0.00046580328162547585 0.8759832473267521 479209166.57073575 -190752774.50419813 -228060040.3761197 -360113323.74002707 68992540.76599038 68992540.76599038 78.97477641947275 0.4247838354716112 0.18235661157750213
70.24699999999976 1.2993636457284898 -0.06740750186286443 0.029055596880005325 -0.004139084668468207 0.879037089245963 0.0004419599366303819 0.0006282650984374479 -0.00042279698200646326 0.8759497386568281 491531052.62687355 -188207778.7758689 -228582628.2686859 -356867137.8733913 67497263.71494769 67497263.71494769 78.9746601601879 0.4248349338106269 0.18235661157750213
70.44599999999976 1.2994729165628198 -0.06729871070945753 0.029116403827097126 -0.004322757792881516 0.879030135475334 0.00039184453484883934 0.0005773514170900104 -0.00037979068238745066 0.8759162299869041 503647514.04937 -185560614.57797635 -228982645.74832216 -353492807.6662129 65980693.69989874 65980693.69989874 78.97455378053697 0.4248880158859787 0.18235661157750213
70.64499999999975 1.2995821873971498 -0.06718991955605064 0.029177210774188923 -0.004506430917294823 0.8790231817047051 0.0003417291330672968 0.0005264377357425728 -0.00033678438276843806 0.8758827213169801 515575784.82642 -182817999.12869886 -229270641.67873177 -350015723.51464236 64450564.54133763 64450564.54133763 78.97446901020938 0.42494279892522796 0.18235661157750213
70.84399999999975 1.2996914582314798 -0.06708112840264374 0.029238017721280724 -0.004690104041708131 0.879016227934076 0.0002916137312857543 0.0004755240543951353 -0.0002937780831494255 0.8758492126470561 527355848.5619485 -180004313.60573706 -229462415.16798958 -346490316.0141954 62924117.443845734 62924117.443845734 78.97439073173342 0.4249986977783653 0.18235661157750213
71.04299999999975 1.29979335092586 -0.06692208846465203 0.029311865335850548 -0.004939939095182636 0.8790035177426541 0.00022318161262444708 0.00040820655244241797 -0.0002542823767955556 0.8758314224528959 539031299.074504 -178690370.95148176 -226794876.67219362 -343134909.26951903 59703973.82380023 59703973.82380023 78.97447944262959 0.4250478648094055 0.18235661157750213
71.24199999999975 1.2998684764148398 -0.06658075061049083 0.029433023278945647 -0.005429803472694881 0.8789699237920761 8.829814900350238e-05 0.0002813775152701062 -0.00022752277624090182 0.875870657426624 550651472.3023381 -182958500.09877372 -213901940.0991168 -340350953.1036643 50260680.068331026 50260680.068331026 78.97516551968371 0.4250715105544554 0.18235661157750213
71.44099999999975 1.29994360190382 -0.06623941275632964 0.029554181222040746 -0.005919667850207127 0.878936329841498 -4.658531461744226e-05 0.00015454847809779438 -0.00020076317568624806 0.875909892400352 562113924.6423621 -186984395.27362332 -200933954.92566818 -337383280.7411951 40849675.62964387 40849675.62964387 78.97587599242951 0.42509771321270157 0.18235661157750213
71.63999999999974 1.3000187273927999 -0.06589807490216844 0.029675339165135844 -0.006409532227719372 0.87890273589092 -0.00018146877823838693 2.7719440925482646e-05 -0.00017400357513159433 0.8759491273740799 573390646.5723234 -190750532.73177722 -187880858.00010002 -334220715.23201317 31473972.896356158 31473972.896356158 78.97660535904737 0.4251267203152468 0.18235661157750213
71.83899999999974 1.3000938528817798 -0.06555673704800724 0.029796497108230943 -0.006899396605231617 0.878869141940342 -0.0003163522418593316 -9.91095962468291e-05 -0.00014724397457694058 0.875988362347808 584467199.9023958 -194239905.52950844 -174745145.11504376 -330857230.94681877 22141941.17009304 22141941.17009304 78.9773428079625 0.4251586787111118 0.18235661157750213
72.03799999999974 1.30014913320098 -0.0652513469262232 0.029901309375509354 -0.007470880318070025 0.8788206611534642 -0.0004644321142110464 -0.0003115851059745429 -9.179942597884242e-05 0.8760544906677418 591127314.6167151 -200279125.4214474 -156566213.17383656 -333994075.10871273 13902774.655302983 13902774.655302983 78.97819456036034 0.4252103404342707 0.18235661157750213
72.23699999999974 1.30012033266927 -0.0650982616705647 0.02993686759524805 -0.008388172267424826 0.8787091071917362 -0.0006684230867120204 -0.0008869311967953035 8.517871827802984e-05 0.8762345618492328 577874101.0100635 -216080963.43625325 -117390412.8396777 -362431046.1212712 9995896.657989556 9995896.657989556 78.97941665878356 0.4253636764992459 0.18235661157750213
72.43599999999974 1.30009153213756 -0.0649451764149062 0.029972425814986752 -0.009305464216779628 0.8785975532300082 -0.0008724140592129945 -0.0014622772876160639 0.00026215686253490216 0.8764146330307238 561857161.223689 -228504749.71729425 -78697064.18063684 -386113781.406851 5994930.694741212 5994930.694741212 78.98051959112287 0.42556262361351416 0.18235661157750213
72.63499999999974 1.30006273160585 -0.06479209115924771 0.030007984034725453 -0.010222756166134429 0.8784859992682802 -0.0010764050317139684 -0.002037623378436824 0.0004391350067917744 0.8765947042122147 543898580.9787227 -237687154.6299318 -41172198.82170402 -405254385.8042831 2006905.1693885094 2006905.1693885094 78.98151476790586 0.4258028714405986 0.18235661157750213
72.83399999999973 1.30003393107414 -0.0646390059035892 0.03004354225446415 -0.011140048115489229 0.8783744453065522 -0.0012803960042149425 -0.0026129694692575848 0.0006161131510486467 0.8767747753937057 524793071.66460395 -243916064.91502416 -5322578.840318665 -420253832.24864894 -1890241.7668205448 -1890241.7668205448 78.98240916724549 0.4260797585188183 0.18235661157750213
73.03299999999973 1.3000081698625598 -0.06434833156504123 0.030081272984943234 -0.0128383127719185 0.8782637910279162 -0.001737127513147936 -0.0035590486734597836 0.0007042939183588312 0.8769472950203948 488128463.8976102 -243371207.9745244 22396188.323978726 -441810050.81814533 -32731765.26505154 -32731765.26505154 78.98227525109861 0.426627976856873 0.18235661157750213
73.23199999999973 1.29999769735224 -0.06336554244589095 0.030129932102783134 -0.018465106803366743 0.8781576624278642 -0.0034652205083877292 -0.006370027781356496 0.00034579697132677557 0.8770818280380798 375856965.37789786 -219178020.69352126 8504227.516674 -468558753.19827276 -151579807.9991241 -151579807.9991241 78.97631770784524 0.4288288703166425 0.18235661157750213
73.43099999999973 1.29998722484192 -0.06238275332674065 0.030178591220623035 -0.02409190083481499 0.8780515338278121 -0.005193313503627522 -0.009181006889253208 -1.2699975705279939e-05 0.8772163610557648 284136500.7778274 -204213833.59082574 -12897797.176996503 -467853037.9069434 -222266459.06698245 -222266459.06698245 78.9697961243578 0.43141019043090634 0.182362485592661
73.62999999999973 1.2999767523316 -0.061399964207590356 0.030227250338462932 -0.02971869486626324 0.8779454052277601 -0.006921406498867315 -0.011991985997149922 -0.0003711969227373355 0.8773508940734498 213353644.3683521 -203539983.3266065 -37109496.597041145 -464917122.89791626 -264781266.5841204 -264781266.5841204 78.96313621687008 0.43414336602503106 0.18240974470360252
73.82899999999972 1.2999662798212799 -0.060417175088440064 0.030275909456302832 -0.03534548889771148 0.8778392766277081 -0.008649499494107107 -0.014802965105046634 -0.000729693869769391 0.8774854270911348 157411793.61196712 -213421579.49225515 -61720547.32285809 -465700692.93720967 -291610039.5846525 -291610039.5846525 78.95667436622227 0.4369385408295135 0.1825540115379768
74.02799999999972 1.3002963773634366 -0.05939056161401621 0.030199750217938772 -0.04138273399007764 0.87714153252433 -0.011601759059092609 -0.01744372793291656 -0.0011033870906750273 0.8779158429029609 114385661.87304908 -294796366.30087656 -76738702.39637767 -446587684.0927507 -346535034.7324786 -346535034.7324786 78.94411655238858 0.4404895635377526 0.18306902103723835
74.22699999999972 1.3027063848689566 -0.05809630654131142 0.029361307447034583 -0.04992666234736436 0.872830708025597 -0.022030178746540105 -0.019044955622039443 -0.001569886127023963 0.8801532572075978 9865600.35479604 -605993259.9050039 -131565463.46231458 -330341203.05123585 -463946642.45570546 -463946642.45570546 78.89911416969602 0.4499778431261352 0.18649379402922703
74.42599999999972 1.3051163923744766 -0.05680205146860663 0.02852286467613039 -0.058470590704651076 0.868519883526864 -0.0324585984339876 -0.020646183311162327 -0.0020363851633728985 0.8823906715122348 -150182133.30095494 -811759328.3590821 -253013952.55346048 -284782473.72919387 -498903916.0591765 -498903916.0591765 78.85546342194503 0.4599650848584686 0.19131368419523226
74.62499999999972 1.3075263998799966 -0.055507796395901844 0.027684421905226197 -0.0670145190619378 0.8642090590281312 -0.04288701812143511 -0.02224741100028521 -0.0025028841997218336 0.8846280858168718 -325287506.907869 -995534222.6203163 -398174990.00434 -267720532.29606426 -514932641.9349042 -514932641.9349042 78.80816479936061 0.47003114890650116 0.19697057086873598
74.82399999999971 1.3099364073855166 -0.054213541323197056 0.026845979134322007 -0.07555844741922452 0.8598982345293982 -0.05331543780888261 -0.0238486386894081 -0.0029693832360707688 0.8868655001215088 -506358314.7895191 -1176217136.6048973 -557339652.8255864 -260501991.38890147 -523626981.12709373 -523626981.12709373 78.75571390587642 0.4801389388698005 0.20310583778903005
75.02299999999971 1.3124856260369948 -0.052775823085230565 0.02630902364915954 -0.08370254330415144 0.8552194413659158 -0.06406037204308514 -0.025128967845471403 -0.003239607166272423 0.8894625501142363 -669269955.6467097 -1355295335.7278965 -691515672.5600518 -243001816.01903635 -526466432.15599525 -526466432.15599525 78.69919364806383 0.4904924464828977 0.20964324103107443
75.22199999999971 1.3161001125879948 -0.05024029975655029 0.028079101307096822 -0.0887870515744558 0.8477248879851809 -0.07722733063509961 -0.023953725618087514 -0.002007899849412755 0.8948115949376082 -679184642.2911688 -1461628886.3396735 -602787747.0031372 -135529980.552702 -491035909.1974052 -491035909.1974052 78.64090992899585 0.5034988926222727 0.21753046547946553
75.42099999999971 1.3197145991389947 -0.04770477642787002 0.029849178965034102 -0.09387155984476014 0.840230334604446 -0.09039428922711408 -0.022778483390703624 -0.0007761925325530873 0.9001606397609802 -702342871.1556964 -1505968042.8650358 -591390985.2101482 -98495291.64670762 -475893152.9382484 -475893152.9382484 78.57596606790815 0.5168200238548449 0.22577718985924453
75.6199999999997 1.3233290856899946 -0.045169253099189746 0.03161925662297139 -0.0989560681150645 0.8327357812237111 -0.10356124781912857 -0.021603241163319735 0.0004555147843065808 0.9055096845843521 -733983209.9819548 -1544787982.4129887 -605757332.1126249 -82721375.8460009 -470530477.020074 -470530477.020074 78.5064864002072 0.5302004718000186 0.23430267790376097
75.8189999999997 1.3269435722409946 -0.04263372977050947 0.033389334280908664 -0.10404057638536884 0.8252412278429762 -0.11672820641114304 -0.020427998935935845 0.001687222101166249 0.910858729407724 -774362592.5629213 -1588172961.5371726 -635710753.3660903 -74367161.54553714 -468323205.6745156 -468323205.6745156 78.43196780475284 0.5436229813468405 0.24302731428342186
76.0179999999997 1.330409852400257 -0.04016396637136651 0.03515382259887824 -0.10875745700974247 0.8178038417193083 -0.12964254297623648 -0.01930394013916691 0.0031252193057956447 0.9162590653558351 -817566313.4080933 -1634234756.9870791 -661011681.8221354 -65640847.20230965 -462156412.1770943 -462156412.1770943 78.35633390310885 0.556831520925221 0.2516814162794445
76.2169999999997 1.332385834953687 -0.038355455597027424 0.03686210699828263 -0.10977763741663446 0.8109413041250474 -0.14001662471502238 -0.018694559172479915 0.006637575937480562 0.9221751620582771 -809822515.5583414 -1630748978.978627 -519907001.7987946 -18209063.903636467 -392458924.43901116 -392458924.43901116 78.32053322106256 0.5678440152219865 0.25841667939467794
76.4159999999997 1.334361817507117 -0.03654694482268834 0.03857039139768701 -0.11079781782352646 0.8040787665307864 -0.15039070645380828 -0.01808517820579292 0.010149932569165479 0.9280912587607191 -778336753.5735203 -1595853405.4657483 -440131627.186017 267600.6920455889 -366515547.10969996 -366515547.10969996 78.28652677864 0.5789819460241907 0.26540291349871115
76.6149999999997 1.336337800060547 -0.03473843404834926 0.04027867579709139 -0.11181799823041845 0.7972162289365254 -0.16076478819259418 -0.01747579723910593 0.013662289200850395 0.9340073554631609 -739665603.9257835 -1555547973.0766485 -379077474.39437455 9200398.439968377 -355667848.8108935 -355667848.8108935 78.25299672049161 0.5901528046315206 0.27253637478581316